LAMMPS (17 Apr 2024)
OMP_NUM_THREADS environment is not set. Defaulting to 1 thread. (src/comm.cpp:98)
  using 1 OpenMP thread(s) per MPI task
# MD of SPC/E water between rigid walls

variable        temp          equal  300
variable        dt            equal  2.0
variable        Nw            equal  2651
variable        l          loop 10
variable d equal 42.6*44.2712*2.6/720
# set wall time limit to ensure we write out a restart file at the end
# timer timeout 47:30:00 every 1000

#======General Settings =======

processors * * *

units               real
boundary            p p f
atom_style          full # for SPC/E


# global model settings
pair_style      lj/cut/coul/long 14.0 # Angstrom!!
pair_modify     shift yes mix arithmetic # Lorentz-Berthelot
kspace_style    pppm/electrode 1e-6
kspace_modify   slab 3 # vacuum layer width
bond_style      harmonic
angle_style     harmonic

region box block 0 42.6 0 44.2712 -25.1 25.1
create_box      6 box                                       bond/types 1                                angle/types 1                               extra/bond/per/atom 2                       extra/angle/per/atom 1                      extra/special/per/atom 2
Created orthogonal box = (0 0 -25.1) to (42.6 44.2712 25.1)
  2 by 3 by 5 MPI processor grid

# prepare SPC/E topology
molecule        spce spce.txt
Read molecule template spce:
# SPC/E water molecule
  1 molecules
  0 fragments
  3 atoms with max type 3
  2 bonds with max type 1
  1 angles with max type 1
  0 dihedrals with max type 0
  0 impropers with max type 0

# Read xyz file
read_dump graphene.xyz 0  x y z box no add yes format xyz #name frame_number box format add
Adding 'type' field to requested per-atom fields
Scanning dump file ...
Reading snapshot from dump file ...
  orthogonal box = (0 0 -25.1) to (42.6 44.2712 25.1)
  0 atoms before read
  1440 atoms in snapshot
  0 atoms purged
  0 atoms replaced
  0 atoms trimmed
  1440 atoms added
  1440 atoms after read

group           wall type 1 6
1440 atoms in group wall

#====== Forcefield =======
mass 1 12.0110 # carbon
mass 2 15.99940 # oxygen
mass 3 1.00800 # hydrogen
mass 4 22.9898 # Na
mass 5 35.453 # Cl
mass 6 12.0110 # carbon2

pair_coeff 1 1 0.0663 3.5812 # graphene-graphene
pair_coeff 2 2 0.1553 3.1656 # oxygen-oxygen
pair_coeff 3 3 0.0000 0.0000 # hydrogen-hydrogen
pair_coeff 4 4 0.09999999999999999 2.584 # Na-Na
pair_coeff 5 5 0.09999999999999999 4.401 # Cl-Cl
pair_coeff 6 6 0.0663 3.5812 # graphene2-graphene2

# spce rigid settings
bond_coeff      1     1000       1.0
angle_coeff     1     100       109.47

velocity        wall set 0.0 0.0 0.0
region upper block $(xlo) $(xhi) $(ylo) $(yhi) 0 $(zhi)
region upper block 0 $(xhi) $(ylo) $(yhi) 0 $(zhi)
region upper block 0 42.600000000000001421 $(ylo) $(yhi) 0 $(zhi)
region upper block 0 42.600000000000001421 0 $(yhi) 0 $(zhi)
region upper block 0 42.600000000000001421 0 44.27120000000000033 0 $(zhi)
region upper block 0 42.600000000000001421 0 44.27120000000000033 0 25.100000000000001421
region lower block $(xlo) $(xhi) $(ylo) $(yhi) $(zlo) 0
region lower block 0 $(xhi) $(ylo) $(yhi) $(zlo) 0
region lower block 0 42.600000000000001421 $(ylo) $(yhi) $(zlo) 0
region lower block 0 42.600000000000001421 0 $(yhi) $(zlo) 0
region lower block 0 42.600000000000001421 0 44.27120000000000033 $(zlo) 0
region lower block 0 42.600000000000001421 0 44.27120000000000033 -25.100000000000001421 0
group lowerAll region lower
720 atoms in group lowerAll
group upperAll region upper
720 atoms in group upperAll
group lower intersect wall lowerAll
720 atoms in group lower
group upper intersect wall upperAll
720 atoms in group upper
group lowerAll delete
group upperAll delete
region upper delete
region lower delete
fix freeze_lower lower setforce 0.0 0.0 0.0
fix freeze_upper upper setforce 0.0 0.0 0.0

#set group upper mol 1
#set group lower mol 2

#######################################################################
#                          Setup a few ions                           #
#######################################################################
variable xpos equal random(0,$(xhi),42)
variable xpos equal random(0,42.600000000000001421,42)
variable ypos equal random(0,$(yhi),42)
variable ypos equal random(0,44.27120000000000033,42)
variable zpos equal random($(zlo)+3,$(zhi)-3,42)
variable zpos equal random(-25.100000000000001421+3,$(zhi)-3,42)
variable zpos equal random(-25.100000000000001421+3,25.100000000000001421-3,42)

# create Na
create_atoms 4 single ${xpos} ${ypos} ${zpos}
create_atoms 4 single 17.9320660829544 ${ypos} ${zpos}
create_atoms 4 single 17.9320660829544 2.36691259689331 ${zpos}
create_atoms 4 single 17.9320660829544 2.36691259689331 10.5902015686035
Created 1 atoms
  using lattice units in orthogonal box = (0 0 -25.1) to (42.6 44.2712 25.1)
  create_atoms CPU = 0.000 seconds
create_atoms 4 single ${xpos} ${ypos} ${zpos}
create_atoms 4 single 26.2941858172417 ${ypos} ${zpos}
create_atoms 4 single 26.2941858172417 35.3006726100922 ${zpos}
create_atoms 4 single 26.2941858172417 35.3006726100922 -21.6539248108864
Created 1 atoms
  using lattice units in orthogonal box = (0 0 -25.1) to (42.6 44.2712 25.1)
  create_atoms CPU = 0.000 seconds
create_atoms 4 single ${xpos} ${ypos} ${zpos}
create_atoms 4 single 15.6054027199745 ${ypos} ${zpos}
create_atoms 4 single 15.6054027199745 15.8112672562599 ${zpos}
create_atoms 4 single 15.6054027199745 15.8112672562599 1.864000415802
Created 1 atoms
  using lattice units in orthogonal box = (0 0 -25.1) to (42.6 44.2712 25.1)
  create_atoms CPU = 0.000 seconds
create_atoms 4 single ${xpos} ${ypos} ${zpos}
create_atoms 4 single 16.1955487132072 ${ypos} ${zpos}
create_atoms 4 single 16.1955487132072 26.2547107264996 ${zpos}
create_atoms 4 single 16.1955487132072 26.2547107264996 14.9622463583946
Created 1 atoms
  using lattice units in orthogonal box = (0 0 -25.1) to (42.6 44.2712 25.1)
  create_atoms CPU = 0.000 seconds
set type 4 charge 1.
Setting atom values ...
  4 settings made for charge

# create Cl
create_atoms 5 single ${xpos} ${ypos} ${zpos}
create_atoms 5 single 23.5632809042931 ${ypos} ${zpos}
create_atoms 5 single 23.5632809042931 36.666808258009 ${zpos}
create_atoms 5 single 23.5632809042931 36.666808258009 -2.28963959217072
Created 1 atoms
  using lattice units in orthogonal box = (0 0 -25.1) to (42.6 44.2712 25.1)
  create_atoms CPU = 0.000 seconds
create_atoms 5 single ${xpos} ${ypos} ${zpos}
create_atoms 5 single 1.67083951234818 ${ypos} ${zpos}
create_atoms 5 single 1.67083951234818 15.8431171998978 ${zpos}
create_atoms 5 single 1.67083951234818 15.8431171998978 12.3860389113426
Created 1 atoms
  using lattice units in orthogonal box = (0 0 -25.1) to (42.6 44.2712 25.1)
  create_atoms CPU = 0.000 seconds
create_atoms 5 single ${xpos} ${ypos} ${zpos}
create_atoms 5 single 9.64388408660889 ${ypos} ${zpos}
create_atoms 5 single 9.64388408660889 36.6125762744427 ${zpos}
create_atoms 5 single 9.64388408660889 36.6125762744427 -18.0695293188095
Created 1 atoms
  using lattice units in orthogonal box = (0 0 -25.1) to (42.6 44.2712 25.1)
  create_atoms CPU = 0.000 seconds
create_atoms 5 single ${xpos} ${ypos} ${zpos}
create_atoms 5 single 11.1462733268738 ${ypos} ${zpos}
create_atoms 5 single 11.1462733268738 2.01072625951767 ${zpos}
create_atoms 5 single 11.1462733268738 2.01072625951767 10.0015774846077
Created 1 atoms
  using lattice units in orthogonal box = (0 0 -25.1) to (42.6 44.2712 25.1)
  create_atoms CPU = 0.000 seconds
set type 5 charge -1.
Setting atom values ...
  4 settings made for charge

# *********************************************************
# setup water
# *********************************************************
# include only waters- not rigid slab

lattice custom 4.5 a1 0.8 0.0 0.0 a2 0.0 0.8 0.0 a3 0.0 0.0 .6 basis 0.0 0.0 0.0
Lattice spacing in x,y,z = 3.6 3.6 2.7
region insert block $(xlo) $(xhi) $(ylo) $(yhi) $(-8.1) $(8.1)
region insert block 0 $(xhi) $(ylo) $(yhi) $(-8.1) $(8.1)
region insert block 0 42.600000000000001421 $(ylo) $(yhi) $(-8.1) $(8.1)
region insert block 0 42.600000000000001421 0 $(yhi) $(-8.1) $(8.1)
region insert block 0 42.600000000000001421 0 44.27120000000000033 $(-8.1) $(8.1)
region insert block 0 42.600000000000001421 0 44.27120000000000033 -8.0999999999999996447 $(8.1)
region insert block 0 42.600000000000001421 0 44.27120000000000033 -8.0999999999999996447 8.0999999999999996447
create_atoms 0 region insert mol spce 23786
Created 7956 atoms
  using lattice units in orthogonal box = (0 0 -25.1) to (42.6 44.2712 25.1)
  create_atoms CPU = 0.002 seconds
#create_atoms 0 random 1 9872 insert mol spce 1786
group           h2o type 2 3
7956 atoms in group h2o
# evaporate waters to get desired number
variable        Nd  equal $(count(h2o)/3 - v_Nw)
variable        Nd  equal 1
print "System has $(count(h2o)/3) waters. Removing ${Nd}."
System has 2652 waters. Removing 1.
fix 1 h2o evaporate 1 $(v_Nd*3) box 12496 molecule yes
fix 1 h2o evaporate 1 3 box 12496 molecule yes
run 1

CITE-CITE-CITE-CITE-CITE-CITE-CITE-CITE-CITE-CITE-CITE-CITE-CITE

Your simulation uses code contributions which should be cited:

- kspace_style pppm/electrode command:

@article{Ahrens2021,
author = {Ahrens-Iwers, Ludwig J.V. and Mei{\ss}ner, Robert H.},
doi = {10.1063/5.0063381},
title = {{Constant potential simulations on a mesh}},
journal = {Journal of Chemical Physics},
year = {2021}
volume = {155},
pages = {104104},
}
CITE-CITE-CITE-CITE-CITE-CITE-CITE-CITE-CITE-CITE-CITE-CITE-CITE

WARNING: No fixes with time integration, atoms won't move (src/verlet.cpp:60)
PPPM/electrode initialization ...
  using 12-bit tables for long-range coulomb (src/kspace.cpp:342)
  G vector (1/distance) = 0.23783361
  grid = 40 45 100
  stencil order = 5
  estimated absolute RMS force accuracy = 0.00036359168
  estimated relative force accuracy = 1.0949456e-06
  using double precision FFTW3
  3d grid and FFT values/proc = 45144 22200
Generated 15 of 15 mixed pair_coeff terms from arithmetic mixing rule
Neighbor list info ...
  update: every = 1 steps, delay = 0 steps, check = yes
  max neighbors/atom: 2000, page size: 100000
  master list distance cutoff = 16
  ghost atom cutoff = 16
  binsize = 8, bins = 6 6 7
  1 neighbor lists, perpetual/occasional/extra = 1 0 0
  (1) pair lj/cut/coul/long, perpetual
      attributes: half, newton on
      pair build: half/bin/newton
      stencil: half/bin/3d
      bin: standard
Per MPI rank memory allocation (min/avg/max) = 8.83 | 9.767 | 11.78 Mbytes
   Step          Temp          E_pair         E_mol          TotEng         Press     
         0   0              1.127601e+11   0.0030706219   1.127601e+11   3.2666814e+11
         1   0              1.127601e+11   0.0030694641   1.127601e+11   3.2666814e+11
Loop time of 0.0309755 on 30 procs for 1 steps with 9401 atoms

Performance: 2.789 ns/day, 8.604 hours/ns, 32.284 timesteps/s, 303.498 katom-step/s
94.9% CPU use with 30 MPI tasks x 1 OpenMP threads

MPI task timing breakdown:
Section |  min time  |  avg time  |  max time  |%varavg| %total
---------------------------------------------------------------
Pair    | 0.003799   | 0.0076737  | 0.012276   |   2.5 | 24.77
Bond    | 1.203e-05  | 1.8436e-05 | 2.6301e-05 |   0.0 |  0.06
Kspace  | 0.0058091  | 0.010397   | 0.014303   |   2.1 | 33.57
Neigh   | 0.010948   | 0.011042   | 0.011186   |   0.1 | 35.65
Comm    | 0.0012785  | 0.0014502  | 0.0015518  |   0.2 |  4.68
Output  | 8.3342e-05 | 0.00010969 | 0.00016408 |   0.0 |  0.35
Modify  | 0.00014844 | 0.00015502 | 0.00016401 |   0.0 |  0.50
Other   |            | 0.0001291  |            |       |  0.42

Nlocal:        313.367 ave         381 max         247 min
Histogram: 2 3 3 7 1 1 2 7 2 2
Nghost:        7919.67 ave        9771 max        6223 min
Histogram: 12 0 0 0 0 0 8 4 4 2
Neighs:         221774 ave      313669 max      141876 min
Histogram: 3 2 2 4 6 4 4 3 1 1

Total # of neighbors = 6653223
Ave neighs/atom = 707.71439
Ave special neighs/atom = 1.6919477
Neighbor list builds = 1
Dangerous builds = 0
unfix 1
#region box delete
print "System now has $(count(h2o)/3) waters."
System now has 2651 waters.
reset_atoms id
Resetting atom IDs ...
PPPM/electrode initialization ...
  using 12-bit tables for long-range coulomb (src/kspace.cpp:342)
  G vector (1/distance) = 0.23783319
  grid = 40 45 100
  stencil order = 5
  estimated absolute RMS force accuracy = 0.00036351831
  estimated relative force accuracy = 1.0947246e-06
  using double precision FFTW3
  3d grid and FFT values/proc = 45144 22200
Generated 15 of 15 mixed pair_coeff terms from arithmetic mixing rule
Finding 1-2 1-3 1-4 neighbors ...
  special bond factors lj:    0        0        0       
  special bond factors coul:  0        0        0       
     2 = max # of 1-2 neighbors
     1 = max # of 1-3 neighbors
     1 = max # of 1-4 neighbors
     5 = max # of special neighbors
  special bonds CPU = 0.002 seconds


reset_timestep 0
neighbor        2.0 bin
neigh_modify    every 1 delay 10 check yes
neigh_modify    exclude type 1 1
neigh_modify    exclude type 6 6
neigh_modify    exclude type 1 6
timestep        ${dt}
timestep        2

# Minimization run
thermo 10
min_style cg
minimize 1.0e-4 1.0e-6 1000 10000
Switching to 'neigh_modify every 1 delay 0 check yes' setting during minimization
PPPM/electrode initialization ...
  using 12-bit tables for long-range coulomb (src/kspace.cpp:342)
  G vector (1/distance) = 0.23783319
  grid = 40 45 100
  stencil order = 5
  estimated absolute RMS force accuracy = 0.00036351831
  estimated relative force accuracy = 1.0947246e-06
  using double precision FFTW3
  3d grid and FFT values/proc = 45144 22200
Generated 15 of 15 mixed pair_coeff terms from arithmetic mixing rule
WARNING: Neighbor exclusions used with KSpace solver may give inconsistent Coulombic energies (src/neighbor.cpp:654)
Per MPI rank memory allocation (min/avg/max) = 10.08 | 11.02 | 13.03 Mbytes
   Step          Temp          E_pair         E_mol          TotEng         Press     
         0   0              1.1272222e+11  0.0030694641   1.1272222e+11  3.2655817e+11
        10   0              726074.34      16490.751      742565.09      2137399.9    
        20   0              13172.738      3742.4141      16915.152      51259.655    
        30   0             -1143.5731      486.9806      -656.59245      24468.044    
        40   0             -11116.179      468.69305     -10647.486      12661.386    
        50   0             -19276.94       1729.556      -17547.384     -13329.365    
        60   0             -22862.695      709.03887     -22153.656     -327.69406    
        70   0             -26071.978      786.63087     -25285.347      1057.0563    
        80   0             -28446.981      990.5522      -27456.429     -6177.729     
        90   0             -30170.382      970.58253     -29199.8       -6253.5178    
       100   0             -31436.091      1021.3586     -30414.733     -5529.4392    
       110   0             -32530.287      1086.7899     -31443.497     -7249.8585    
       120   0             -33286.955      1033.5045     -32253.45      -7217.8607    
       130   0             -33730.123      1018.7444     -32711.378     -7129.9068    
       140   0             -34011.139      935.52819     -33075.611     -4506.9969    
       150   0             -34591.644      1103.6253     -33488.019     -7518.7038    
       160   0             -34845.728      1076.8694     -33768.858     -7018.1291    
       170   0             -35159.929      1116.6139     -34043.316     -7390.012     
       180   0             -35386.37       1109.2853     -34277.084     -7208.7691    
       190   0             -35686.816      1204.1449     -34482.671     -8455.1634    
       200   0             -35793.557      1121.1037     -34672.454     -6407.4497    
       210   0             -36022.546      1173.7297     -34848.817     -7264.4806    
       220   0             -36108.345      1117.5074     -34990.838     -6326.2759    
       227   0             -36213.131      1128.3117     -35084.819     -6122.9708    
Loop time of 7.14611 on 30 procs for 227 steps with 9401 atoms

94.5% CPU use with 30 MPI tasks x 1 OpenMP threads

Minimization stats:
  Stopping criterion = energy tolerance
  Energy initial, next-to-last, final = 
      112722218571.211  -35081.4712559166  -35084.8193544784
  Force two-norm initial, final = 2.9555983e+12 103.91429
  Force max component initial, final = 1.7853172e+12 22.835504
  Final line search alpha, max atom move = 0.003511616 0.08018952
  Iterations, force evaluations = 227 397

MPI task timing breakdown:
Section |  min time  |  avg time  |  max time  |%varavg| %total
---------------------------------------------------------------
Pair    | 1.3044     | 2.9191     | 4.2892     |  49.0 | 40.85
Bond    | 0.0035018  | 0.006402   | 0.0089935  |   1.4 |  0.09
Kspace  | 2.2804     | 3.6607     | 5.255      |  43.9 | 51.23
Neigh   | 0.19961    | 0.20085    | 0.20272    |   0.2 |  2.81
Comm    | 0.25455    | 0.30633    | 0.34577    |   4.9 |  4.29
Output  | 0.0021192  | 0.0021663  | 0.0028082  |   0.3 |  0.03
Modify  | 0.00075981 | 0.0012798  | 0.0020732  |   0.9 |  0.02
Other   |            | 0.04923    |            |       |  0.69

Nlocal:        313.367 ave         380 max         248 min
Histogram: 3 2 5 3 1 5 1 2 7 1
Nghost:        7769.03 ave        9397 max        6138 min
Histogram: 12 0 0 0 0 0 0 12 0 6
Neighs:         214219 ave      277251 max      118208 min
Histogram: 1 4 1 0 2 4 3 9 4 2

Total # of neighbors = 6426584
Ave neighs/atom = 683.60642
Ave special neighs/atom = 1.6919477
Neighbor list builds = 10
Dangerous builds = 0

# setup nvt for ions and water
group           solvent type 2 3 4 5
7961 atoms in group solvent
compute watertemp solvent temp
velocity solvent create 300.0 4928459 rot yes dist gaussian

# ======== set up NVT integration ========
# rigid constraints with thermostat
fix             wshake h2o shake 0.0001 50 0 b 1 a 1 mol spce
Finding SHAKE clusters ...
       0 = # of size 2 clusters
       0 = # of size 3 clusters
       0 = # of size 4 clusters
    2651 = # of frozen angles
  find clusters CPU = 0.001 seconds

fix             mynvt solvent nvt temp ${temp} ${temp} $(100.0*v_dt)
fix             mynvt solvent nvt temp 300 ${temp} $(100.0*v_dt)
fix             mynvt solvent nvt temp 300 300 $(100.0*v_dt)
fix             mynvt solvent nvt temp 300 300 200
fix_modify      mynvt temp watertemp
WARNING: Temperature for fix modify is not for group all (src/fix_nh.cpp:1397)
thermo_style custom step pe ke ecoul elong evdwl c_watertemp # water temp
label loop_start
    variable l_tf equal ${l}/2
    variable l_tf equal 1/2
    # fix id group1 electrode/conp psi1 eta couple group2 psi2 write_inv
    # fix conp1 lower electrode/conp 0.0 5 couple upper 0.0 write_inv inv.out etypes 1*6 # Write call to not have to determine the matrix twice
    fix conp1 lower electrode/conp 0.0 2.925 couple upper 0.0# Write call to not have to determine the matrix twice
1440 atoms in group conp_group
    fix_modify conp1 tf 1 ${l_tf} ${d}
    fix_modify conp1 tf 1 0.5 ${d}
    fix_modify conp1 tf 1 0.5 6.81038626666667
    fix_modify conp1 tf 6 ${l_tf} ${d}
    fix_modify conp1 tf 6 0.5 ${d}
    fix_modify conp1 tf 6 0.5 6.81038626666667
    # fix conp1 lower electrode/conp 0.0 5 couple upper 0.0 read_inv inv.out # Write call to not have to determine the matrix twice

    # ======== equilibrate for ? ns ========
    reset_timestep 0
    thermo 50
    # dump equilxtc h2o xtc 50 equil.xtc
    run 500 # 1 ps, ~ correlation time of spce water

CITE-CITE-CITE-CITE-CITE-CITE-CITE-CITE-CITE-CITE-CITE-CITE-CITE

Your simulation uses code contributions which should be cited:

- fix electrode command:

@article{Ahrens2022
author = {Ahrens-Iwers, Ludwig J.V. and Janssen, Mahijs and Tee, Shern R. and Mei{\ss}ner, Robert H.},
doi = {10.1063/5.0099239},
title = {{ELECTRODE: An electrochemistry package for LAMMPS}},
journal = {The Journal of Chemical Physics},
year = {2022}
volume = {157},
pages = {084801},
}
CITE-CITE-CITE-CITE-CITE-CITE-CITE-CITE-CITE-CITE-CITE-CITE-CITE

PPPM/electrode initialization ...
  using 12-bit tables for long-range coulomb (src/kspace.cpp:342)
  G vector (1/distance) = 0.23783319
  grid = 40 45 100
  stencil order = 5
  estimated absolute RMS force accuracy = 0.00036351831
  estimated relative force accuracy = 1.0947246e-06
  using double precision FFTW3
  3d grid and FFT values/proc = 45144 22200
Generated 15 of 15 mixed pair_coeff terms from arithmetic mixing rule
WARNING: Neighbor exclusions used with KSpace solver may give inconsistent Coulombic energies (src/neighbor.cpp:654)
Neighbor list info ...
  update: every = 1 steps, delay = 10 steps, check = yes
  max neighbors/atom: 2000, page size: 100000
  master list distance cutoff = 16
  ghost atom cutoff = 16
  binsize = 8, bins = 6 6 7
  2 neighbor lists, perpetual/occasional/extra = 2 0 0
  (1) pair lj/cut/coul/long, perpetual
      attributes: half, newton on
      pair build: half/bin/newton
      stencil: half/bin/3d
      bin: standard
  (2) fix electrode/conp, perpetual, copy from (1)
      attributes: half, newton on
      pair build: copy
      stencil: none
      bin: none
WARNING: System is not charge neutral, net charge = -0.54205132 (src/kspace.cpp:327)
Per MPI rank memory allocation (min/avg/max) = 26.61 | 27.81 | 29.57 Mbytes
   Step         PotEng         KinEng         E_coul         E_long         E_vdwl      c_watertemp  
         0  -36235.364      7118.1744      85170.821     -127467.7       6061.5157      449.80222    
        50  -31577.079      2518.5193      91087.078     -127465.71      4801.5498      159.14693    
       100  -31643.584      2802.0977      90778.389     -127458.34      5036.3692      177.06643    
       150  -31673.735      3100.5594      90354.468     -127456.18      5427.9767      195.92643    
       200  -31613.709      3336.9087      90389.756     -127460.94      5457.4742      210.8615     
       250  -31518.453      3555.2855      90488.261     -127461.76      5455.0453      224.66088    
       300  -31268.078      3630.7183      90750.476     -127463.58      5445.03        229.42753    
       350  -31071.618      3765.2849      91202.748     -127457.72      5183.3535      237.93088    
       400  -30952.539      3976.5547      91149.72      -127460.09      5357.8333      251.28116    
       450  -30869.326      4221.1057      91155.659     -127456.87      5431.8811      266.73451    
       500  -30606.504      4275.4116      91620.688     -127458.23      5231.0335      270.16613    
Loop time of 13.276 on 30 procs for 500 steps with 9401 atoms

Performance: 6.508 ns/day, 3.688 hours/ns, 37.662 timesteps/s, 354.060 katom-step/s
94.3% CPU use with 30 MPI tasks x 1 OpenMP threads

MPI task timing breakdown:
Section |  min time  |  avg time  |  max time  |%varavg| %total
---------------------------------------------------------------
Pair    | 1.1834     | 2.2439     | 3.6968     |  40.0 | 16.90
Bond    | 0.00018837 | 0.00053834 | 0.00083373 |   0.0 |  0.00
Kspace  | 3.1405     | 4.597      | 5.6454     |  28.0 | 34.63
Neigh   | 0.80679    | 0.81193    | 0.81892    |   0.3 |  6.12
Comm    | 0.30115    | 0.37552    | 0.43872    |   5.9 |  2.83
Output  | 0.001092   | 0.0011162  | 0.0014688  |   0.2 |  0.01
Modify  | 5.1784     | 5.2272     | 5.2746     |   1.0 | 39.37
Other   |            | 0.01884    |            |       |  0.14

Nlocal:        313.367 ave         372 max         273 min
Histogram: 3 5 6 4 0 1 6 3 0 2
Nghost:         7712.2 ave        9450 max        6023 min
Histogram: 12 0 0 0 0 0 0 12 0 6
Neighs:         214295 ave      272372 max      116356 min
Histogram: 5 1 0 0 0 1 5 11 4 3

Total # of neighbors = 6428844
Ave neighs/atom = 683.84682
Ave special neighs/atom = 1.6919477
Neighbor list builds = 41
Dangerous builds = 4

    write_dump solvent xyz water_ions.xyz
    write_data equilibrated_structure.data
System init for write_data ...
PPPM/electrode initialization ...
  using 12-bit tables for long-range coulomb (src/kspace.cpp:342)
  G vector (1/distance) = 0.23783322
  grid = 40 45 100
  stencil order = 5
  estimated absolute RMS force accuracy = 0.00036352325
  estimated relative force accuracy = 1.0947395e-06
  using double precision FFTW3
  3d grid and FFT values/proc = 45144 22200
Generated 15 of 15 mixed pair_coeff terms from arithmetic mixing rule
WARNING: Neighbor exclusions used with KSpace solver may give inconsistent Coulombic energies (src/neighbor.cpp:654)

    ## ======== production run ========


    reset_timestep 0
    # Dump to also show the changing charge of the walls
    dump alldump all custom 50 wallcharge_${l_tf}.lammpstrj id type x y z q
    dump alldump all custom 50 wallcharge_0.5.lammpstrj id type x y z q
    thermo 500 # frequency log file
    #
    variable doutx equal 50 # 0.1ps
    #
    #dump xtc all xtc ${doutx} traj.xtc
    run 20000
PPPM/electrode initialization ...
  using 12-bit tables for long-range coulomb (src/kspace.cpp:342)
  G vector (1/distance) = 0.23783322
  grid = 40 45 100
  stencil order = 5
  estimated absolute RMS force accuracy = 0.00036352325
  estimated relative force accuracy = 1.0947395e-06
  using double precision FFTW3
  3d grid and FFT values/proc = 45144 22200
Generated 15 of 15 mixed pair_coeff terms from arithmetic mixing rule
WARNING: Neighbor exclusions used with KSpace solver may give inconsistent Coulombic energies (src/neighbor.cpp:654)
Per MPI rank memory allocation (min/avg/max) = 27.35 | 27.86 | 29.57 Mbytes
   Step         PotEng         KinEng         E_coul         E_long         E_vdwl      c_watertemp  
         0  -30606.504      4275.4116      91620.704     -127458.24      5231.0335      270.16613    
       500  -29644.318      4852.446       92970.971     -127447.13      4831.8419      306.62932    
      1000  -29675.474      4778.8245      92865.625     -127455.83      4914.7356      301.97713    
      1500  -29882.241      4633.4887      92664.02      -127456.83      4910.5725      292.79326    
      2000  -29768.363      4706.4127      92825.864     -127447.45      4853.227       297.40138    
      2500  -29730.435      4867.5713      92962.12      -127462.16      4769.6082      307.5851     
      3000  -29879.754      4722.2871      92734.539     -127450.22      4835.9253      298.40449    
      3500  -29860.534      4735.3866      92736.543     -127457.74      4860.6666      299.23226    
      4000  -29843.63       4734.7748      92734.59      -127454.7       4876.4846      299.1936     
      4500  -29802.257      4773.6927      92721.301     -127451.93      4928.3752      301.65285    
      5000  -29854.31       4723.0736      92659.213     -127454.44      4940.9144      298.4542     
      5500  -29786.977      4804.2913      92690.3       -127453.21      4975.9371      303.58639    
      6000  -29771.346      4837.8974      92835.183     -127455.07      4848.5391      305.70998    
      6500  -29887.512      4741.0006      92651.121     -127456.18      4917.5495      299.58702    
      7000  -29730.979      4750.2726      92947.197     -127450.23      4772.0496      300.17291    
      7500  -29817.646      4753.2776      92757.31      -127455.3       4880.3417      300.3628     
      8000  -29953.088      4827.5741      92615.094     -127455.41      4887.2297      305.05765    
      8500  -29759.904      4761.1647      92834.524     -127452.47      4858.0378      300.8612     
      9000  -29942.128      4780.5345      92541.322     -127461         4977.5511      302.08518    
      9500  -29847.576      4789.6923      92578.314     -127448.35      5022.4635      302.66387    
     10000  -29818.802      4733.0846      92775.387     -127448.92      4854.7273      299.08679    
     10500  -29797.585      4753.881       92681.432     -127461.09      4982.0722      300.40094    
     11000  -29971.676      4722.7973      92535.711     -127461.07      4953.6873      298.43673    
     11500  -29914.208      4701.5313      92680.356     -127451.56      4856.9943      297.09292    
     12000  -29726.512      4754.6214      92785.59      -127451.75      4939.6486      300.44772    
     12500  -29806.708      4739.5017      92884.751     -127459.75      4768.2919      299.4923     
     13000  -29859.687      4695.0604      92633.605     -127451.1       4957.8057      296.68402    
     13500  -29801.28       4668.4076      92835.653     -127456.42      4819.4829      294.99981    
     14000  -29743.423      4756.7285      92801.988     -127458.58      4913.1667      300.58087    
     14500  -29740.994      4686.1684      92835.911     -127455.16      4878.2591      296.12213    
     15000  -29772.194      4663.8445      92698.383     -127444.87      4974.2963      294.71147    
     15500  -29889.288      4755.259       92723.462     -127453.93      4841.1772      300.48801    
     16000  -29828.14       4834.5844      92820.657     -127458.2       4809.4036      305.50063    
     16500  -29794.493      4772.5916      92797.854     -127455.93      4863.5878      301.58327    
     17000  -29705.419      4701.852       92945.03      -127454.75      4804.2979      297.11318    
     17500  -29933.803      4805.9427      92533.647     -127460.51      4993.0582      303.69075    
     18000  -29866.953      4667.4956      92695.056     -127460.4       4898.3884      294.94218    
     18500  -30077.443      4698.1976      92550.308     -127456.18      4828.4249      296.88227    
     19000  -29841.31       4823.4521      92602.474     -127455.94      5012.1528      304.79718    
     19500  -29852.22       4806.2738      92692.975     -127462.25      4917.0506      303.71167    
     20000  -29953.527      4697.3038      92576.816     -127449.14      4918.7995      296.82578    
Loop time of 507.814 on 30 procs for 20000 steps with 9401 atoms

Performance: 6.806 ns/day, 3.526 hours/ns, 39.385 timesteps/s, 370.254 katom-step/s
94.3% CPU use with 30 MPI tasks x 1 OpenMP threads

MPI task timing breakdown:
Section |  min time  |  avg time  |  max time  |%varavg| %total
---------------------------------------------------------------
Pair    | 46.04      | 86.625     | 141.33     | 260.6 | 17.06
Bond    | 0.01185    | 0.019575   | 0.028      |   3.1 |  0.00
Kspace  | 110.05     | 164.98     | 205.87     | 189.1 | 32.49
Neigh   | 38.22      | 38.415     | 38.704     |   2.0 |  7.56
Comm    | 12.211     | 14.378     | 16.396     |  25.3 |  2.83
Output  | 0.50545    | 0.67563    | 0.84183    |  12.3 |  0.13
Modify  | 200.75     | 201.99     | 203.12     |   4.1 | 39.78
Other   |            | 0.7308     |            |       |  0.14

Nlocal:        313.367 ave         359 max         271 min
Histogram: 4 3 6 2 3 0 0 4 6 2
Nghost:        7679.33 ave        9342 max        6054 min
Histogram: 12 0 0 0 0 0 0 12 0 6
Neighs:         213146 ave      250600 max      126391 min
Histogram: 5 1 0 0 0 0 1 5 8 10

Total # of neighbors = 6394381
Ave neighs/atom = 680.18094
Ave special neighs/atom = 1.6919477
Neighbor list builds = 1925
Dangerous builds = 1292
    unfix conp1
    fix conp2 lower electrode/conp 0.5 2.925 couple upper -0.5
1440 atoms in group conp_group
    fix_modify conp2 tf 1 ${l_tf} ${d}
    fix_modify conp2 tf 1 0.5 ${d}
    fix_modify conp2 tf 1 0.5 6.81038626666667
    fix_modify conp2 tf 6 ${l_tf} ${d}
    fix_modify conp2 tf 6 0.5 ${d}
    fix_modify conp2 tf 6 0.5 6.81038626666667
    run         200000 # 400 ps
PPPM/electrode initialization ...
  using 12-bit tables for long-range coulomb (src/kspace.cpp:342)
  G vector (1/distance) = 0.23783322
  grid = 40 45 100
  stencil order = 5
  estimated absolute RMS force accuracy = 0.00036352309
  estimated relative force accuracy = 1.094739e-06
  using double precision FFTW3
  3d grid and FFT values/proc = 45144 22200
Generated 15 of 15 mixed pair_coeff terms from arithmetic mixing rule
WARNING: Neighbor exclusions used with KSpace solver may give inconsistent Coulombic energies (src/neighbor.cpp:654)
Neighbor list info ...
  update: every = 1 steps, delay = 10 steps, check = yes
  max neighbors/atom: 2000, page size: 100000
  master list distance cutoff = 16
  ghost atom cutoff = 16
  binsize = 8, bins = 6 6 7
  2 neighbor lists, perpetual/occasional/extra = 2 0 0
  (1) pair lj/cut/coul/long, perpetual
      attributes: half, newton on
      pair build: half/bin/newton
      stencil: half/bin/3d
      bin: standard
  (2) fix electrode/conp, perpetual, copy from (1)
      attributes: half, newton on
      pair build: copy
      stencil: none
      bin: none
Per MPI rank memory allocation (min/avg/max) = 28.61 | 29.13 | 30.84 Mbytes
   Step         PotEng         KinEng         E_coul         E_long         E_vdwl      c_watertemp  
     20000  -29951.058      4697.3038      92576.88      -127446.74      4918.7995      296.82578    
     20500  -29831.155      4676.9826      92798.68      -127455.76      4825.929       295.54167    
     21000  -29762.414      4662.6713      92818.589     -127453.08      4872.0797      294.63733    
     21500  -29767.664      4753.6232      92751.596     -127450.41      4931.1496      300.38464    
     22000  -29803.525      4767.9287      92864.612     -127445.99      4777.8482      301.28862    
     22500  -29846.323      4833.5765      92572.744     -127446.48      5027.414       305.43694    
     23000  -29916.407      4738.2639      92475.374     -127444         5052.2212      299.41408    
     23500  -29859.123      4808.3752      92685.08      -127437.3       4893.0948      303.84446    
     24000  -29775.279      4739.9543      92855.509     -127444.48      4813.6929      299.5209     
     24500  -29892.861      4723.8268      92503.597     -127450.56      5054.1046      298.50179    
     25000  -29882.632      4802.2188      92532.34      -127448.82      5033.8429      303.45543    
     25500  -29737.922      4736.7834      92783.266     -127436.69      4915.4977      299.32052    
     26000  -29785.246      4750.9785      92742.552     -127435.3       4907.5011      300.21752    
     26500  -29735.073      4718.4089      92883.206     -127441.82      4823.5416      298.15943    
     27000  -29882.872      4759.7133      92641.627     -127439.72      4915.2193      300.76948    
     27500  -29877.189      4709.2081      92703.823     -127443.13      4862.1223      297.57803    
     28000  -29863.075      4758.9888      92624.291     -127443.71      4956.3486      300.7237     
     28500  -29774.037      4783.7648      92782.591     -127438.54      4881.9173      302.28931    
     29000  -29809.386      4707.2731      92727.942     -127438.7       4901.3756      297.45575    
     29500  -29865.15       4762.0356      92703.647     -127436.34      4867.5413      300.91623    
     30000  -29822.238      4802.4194      92681.861     -127442.99      4938.8892      303.46811    
     30500  -29939.119      4821.0703      92698.97      -127438         4799.9131      304.64667    
     31000  -29882.691      4642.2913      92449.177     -127438.13      5106.2603      293.3495     
     31500  -29811.068      4813.1891      92760.984     -127437.37      4865.3215      304.14865    
     32000  -29846.553      4719.9151      92866.853     -127444.04      4730.6301      298.25461    
     32500  -29766.458      4674.6383      92740.127     -127441.33      4934.7426      295.39353    
     33000  -29882.911      4798.2623      92568.732     -127436.93      4985.2901      303.20542    
     33500  -29778.292      4747.9491      92779.862     -127440.15      4881.994       300.0261     
     34000  -29852.217      4703.3044      92723.237     -127450.69      4875.2386      297.20497    
     34500  -29857.117      4698.6505      92608.259     -127437.59      4972.209       296.91088    
     35000  -29808.529      4738.6498      92720.617     -127445.02      4915.8712      299.43846    
     35500  -29900.429      4860.8407      92622.81      -127442.66      4919.4174      307.15979    
     36000  -29823.035      4742.0108      92660.07      -127440.26      4957.1565      299.65085    
     36500  -29841.752      4642.3227      92676.49      -127433.15      4914.9037      293.35149    
     37000  -29770.087      4711.7246      92640.601     -127445.9       5035.2124      297.73704    
     37500  -29803.37       4703.6222      92743.071     -127442.19      4895.7508      297.22505    
     38000  -29807.925      4713.2149      92629.952     -127441.26      5003.3847      297.83121    
     38500  -29995.338      4687.7901      92497.59      -127439.54      4946.6089      296.22461    
     39000  -29686.303      4823.6842      92971.617     -127426.25      4768.3345      304.81185    
     39500  -29830.809      4788.2221      92585.135     -127448.56      5032.6132      302.57097    
     40000  -29824.668      4769.2287      92681.278     -127432.54      4926.5914      301.37077    
     40500  -29826.394      4726.5454      92722.32      -127436.67      4887.958       298.67358    
     41000  -29866.11       4781.1046      92732.234     -127446.93      4848.589       302.12121    
     41500  -29808.387      4670.3785      92672.206     -127442.85      4962.26        295.12435    
     42000  -29943.09       4787.2979      92642.081     -127435.86      4850.6923      302.51257    
     42500  -29750.825      4804.0907      92810.404     -127430.22      4868.9943      303.57372    
     43000  -29739.551      4715.6145      92900.44      -127439.09      4799.0985      297.98285    
     43500  -29844.399      4667.6395      92682.914     -127440.82      4913.5094      294.95128    
     44000  -29674.635      4723.7987      92925.092     -127445.02      4845.2906      298.50001    
     44500  -29811.941      4805.3426      92724.059     -127440.73      4904.7283      303.65283    
     45000  -29883.462      4725.6002      92640.142     -127444.08      4920.4729      298.61385    
     45500  -29751.452      4691.7451      92826.285     -127447.26      4869.5269      296.47453    
     46000  -29772.961      4769.8202      92701.475     -127439.61      4965.1726      301.40814    
     46500  -29617.75       4803.2135      93016.131     -127437.28      4803.3962      303.51829    
     47000  -29743.787      4832.2195      92963.418     -127440.12      4732.9167      305.3512     
     47500  -29759.791      4776.187       92964.677     -127436.25      4711.7813      301.81047    
     48000  -29998.489      4790.2698      92481.843     -127436.21      4955.879       302.70037    
     48500  -29927.098      4776.6418      92613.104     -127441.73      4901.5256      301.83921    
     49000  -29782.357      4837.0332      92840.123     -127449.76      4827.2852      305.65538    
     49500  -29705.189      4815.8249      93014.995     -127442.84      4722.653       304.31521    
     50000  -29774.037      4740.3792      92903.602     -127441.49      4763.8493      299.54775    
     50500  -29870.668      4734.7707      92712.189     -127444.23      4861.3754      299.19334    
     51000  -29926.616      4808.5423      92486.002     -127441.07      5028.454       303.85502    
     51500  -29778.927      4781.4671      92887.332     -127434.53      4768.2696      302.14412    
     52000  -29774.679      4791.273       92715.844     -127450.56      4960.0348      302.76376    
     52500  -29833.046      4703.4302      92677.965     -127441.59      4930.5814      297.21291    
     53000  -29771.895      4666.3369      92868.024     -127444.36      4804.4412      294.86897    
     53500  -29939.609      4635.6621      92622.466     -127445.76      4883.6799      292.9306     
     54000  -29902.323      4695.7019      92574.158     -127439.87      4963.3864      296.72456    
     54500  -29969.32       4692.7226      92542.19      -127437.04      4925.5315      296.53629    
     55000  -29812.983      4739.5947      92720.96      -127441.49      4907.5437      299.49817    
     55500  -29946.719      4762.5492      92562.057     -127441.54      4932.7623      300.94868    
     56000  -29842.615      4684.6815      92726.336     -127443.43      4874.4791      296.02817    
     56500  -29833.164      4785.0143      92670.738     -127443.68      4939.7737      302.36827    
     57000  -29739.265      4758.6493      92735.74      -127441.64      4966.6352      300.70224    
     57500  -29746.497      4773.5049      92668.532     -127441.3       5026.2741      301.64098    
     58000  -29846.326      4807.6158      92547.804     -127446         5051.8719      303.79647    
     58500  -29522.091      4681.1817      93036.198     -127443.92      4885.6328      295.80702    
     59000  -29755.324      4768.337       92893.421     -127441.85      4793.1014      301.31442    
     59500  -29786.768      4711.3419      92773.493     -127450.83      4890.5641      297.71286    
     60000  -29864.405      4763.6936      92774.065     -127454.24      4815.7663      301.021      
     60500  -29708.93       4746.3584      92779.605     -127445.88      4957.3449      299.92558    
     61000  -29854.534      4752.9661      92768.756     -127444.12      4820.8271      300.34312    
     61500  -29747.507      4702.3354      92905.821     -127449.8       4796.4693      297.14373    
     62000  -29877.152      4771.2984      92706.948     -127437.04      4852.9361      301.50155    
     62500  -29825.636      4760.2072      92750.369     -127446.12      4870.1155      300.80069    
     63000  -29744.42       4823.6931      92807.612     -127437.83      4885.797       304.81241    
     63500  -29881.31       4684.9068      92517.56      -127436.61      5037.7358      296.04241    
     64000  -29864.398      4741.4093      92720.101     -127444.76      4860.2563      299.61284    
     64500  -29753.932      4746.3258      92814.484     -127437.93      4869.5107      299.92352    
     65000  -29844.492      4717.9438      92614.716     -127441.12      4981.9065      298.13004    
     65500  -29848.167      4763.3904      92684.562     -127431.76      4899.0326      301.00184    
     66000  -29753.685      4907.1594      92782.712     -127437.76      4901.3584      310.0867     
     66500  -29836.903      4771.99        92682.627     -127436.96      4917.4306      301.54526    
     67000  -29749.429      4740.1006      92900.311     -127440.36      4790.6162      299.53014    
     67500  -29636.483      4768.9257      92952.611     -127439.23      4850.1399      301.35162    
     68000  -29889.757      4758.6037      92633.046     -127432.53      4909.7254      300.69936    
     68500  -29816.389      4740.6768      92719.725     -127438.05      4901.9336      299.56656    
     69000  -29848.926      4814.0351      92523.168     -127439.64      5067.5457      304.20211    
     69500  -29720.763      4798.3773      92817.739     -127439.15      4900.6438      303.21269    
     70000  -29829.904      4814.7474      92894.551     -127443.38      4718.9284      304.24712    
     70500  -29891.83       4752.218       92497.014     -127435.56      5046.7205      300.29585    
     71000  -29552.014      4780.8053      93086.592     -127439.87      4801.2655      302.1023     
     71500  -29794.013      4724.2888      92579.251     -127435.97      5062.7031      298.53099    
     72000  -29749.838      4860.5228      92997.923     -127435.13      4687.3684      307.1397     
     72500  -29666.272      4782.6508      92794.622     -127432.09      4971.1927      302.21892    
     73000  -29730.345      4685.0186      92834.864     -127443.56      4878.3558      296.04947    
     73500  -29846.536      4729.8312      92741.005     -127440.98      4853.438       298.88121    
     74000  -29924.585      4769.5231      92694.152     -127444.32      4825.5781      301.38937    
     74500  -29857.427      4659.3363      92622.204     -127437.11      4957.4748      294.42659    
     75000  -29656.59       4694.2021      93004.402     -127436.85      4775.8563      296.62978    
     75500  -29704.157      4758.8712      92878.963     -127444.87      4861.7536      300.71627    
     76000  -29721.026      4753.9249      92931.208     -127449.91      4797.6747      300.40371    
     76500  -29851.641      4722.6858      92693.455     -127439.04      4893.9466      298.42969    
     77000  -29829.843      4693.2913      92769.912     -127439.1       4839.3435      296.57223    
     77500  -29789.314      4792.3418      92771.879     -127444.92      4883.7272      302.8313     
     78000  -29966.917      4786.9815      92616.075     -127445.28      4862.2895      302.49258    
     78500  -29789.473      4762.2523      92741.094     -127437.14      4906.5757      300.92992    
     79000  -29816.202      4646.8191      92790.256     -127433.11      4826.6558      293.63562    
     79500  -29734.894      4835.3074      92740.368     -127438         4962.7394      305.54632    
     80000  -29697.78       4746.7529      92787.414     -127441.87      4956.6755      299.95051    
     80500  -29687.283      4760.5957      92864.308     -127434.19      4882.599       300.82524    
     81000  -29697.714      4664.0217      92846.307     -127441.95      4897.9285      294.72266    
     81500  -29697.918      4661.6961      92969.076     -127435.79      4768.7915      294.57571    
     82000  -29662.283      4852.178       92923.176     -127436.8       4851.3375      306.61239    
     82500  -29689.489      4716.4077      92972.859     -127444.96      4782.6142      298.03297    
     83000  -29734.212      4732.0921      92841.36      -127442.49      4866.9157      299.02408    
     83500  -29667.134      4684.6434      92922.931     -127438.21      4848.1467      296.02576    
     84000  -29679.507      4758.0588      92917.47      -127444.89      4847.9173      300.66493    
     84500  -29663.576      4733.204       92926.36      -127436.42      4846.4828      299.09434    
     85000  -29750.666      4666.899       92834.399     -127441.01      4855.9429      294.90448    
     85500  -29868.47       4765.0462      92650.566     -127444.74      4925.7         301.10647    
     86000  -29686.075      4750.4517      92876.22      -127434.73      4872.4305      300.18423    
     86500  -29646.939      4808.7097      92988.284     -127431.52      4796.2948      303.8656     
     87000  -29712.236      4740.6202      92776.496     -127439.21      4950.4809      299.56297    
     87500  -29889.5        4645.283       92736.761     -127444.68      4818.4201      293.53856    
     88000  -29739.726      4755.6945      92855.706     -127437.55      4842.1204      300.51553    
     88500  -29642.291      4734.1706      93058.693     -127441.89      4740.9069      299.15542    
     89000  -29775.986      4630.3507      92753.437     -127440.23      4910.8059      292.59497    
     89500  -29756.525      4728.9079      92725.222     -127436.58      4954.8348      298.82287    
     90000  -29841.149      4839.7927      92672.256     -127442.78      4929.3701      305.82975    
     90500  -29732.136      4740.3896      92810.468     -127443.23      4900.6209      299.5484     
     91000  -29734.943      4695.4614      92859.387     -127444.99      4850.6639      296.70936    
     91500  -29649.963      4658.4688      92957.432     -127439.19      4831.7908      294.37177    
     92000  -29705.646      4706.2849      92887.712     -127439.1       4845.7407      297.3933     
     92500  -29726.263      4744.7417      92851.716     -127443.69      4865.713       299.82342    
     93000  -29678.455      4761.494       92882.245     -127442.85      4882.1477      300.88201    
     93500  -29639.556      4808.437       92979.962     -127441.03      4821.5143      303.84836    
     94000  -29846.635      4846.7676      92667.752     -127433.88      4919.4978      306.2705     
     94500  -29858.033      4762.2163      92755.769     -127438.32      4824.5188      300.92764    
     95000  -29779.683      4645.7153      92711.242     -127443.96      4953.033       293.56587    
     95500  -29755.621      4675.4339      92750.089     -127442.08      4936.3648      295.44381    
     96000  -29851.198      4764.706       92682.389     -127435.95      4902.361       301.08497    
     96500  -29782.323      4668.3544      92699.938     -127435.79      4953.5281      294.99645    
     97000  -29872.523      4691.2898      92593.599     -127445.19      4979.0675      296.44575    
     97500  -29851.752      4723.8478      92812.98      -127443.75      4779.0201      298.50312    
     98000  -29777.307      4745.8592      92749.595     -127436.34      4909.4353      299.89403    
     98500  -29939.454      4656.0407      92565.07      -127445.68      4941.16        294.21834    
     99000  -29766.457      4792.3155      92599.418     -127442.04      5076.1649      302.82963    
     99500  -29838.078      4755.1606      92703.871     -127437.91      4895.9626      300.48179    
    100000  -29761.398      4718.8794      92684.979     -127438.43      4992.0516      298.18916    
    100500  -29907.338      4708.8494      92506.631     -127428.62      5014.6536      297.55536    
    101000  -29818.431      4736.8444      92790.747     -127448.02      4838.845       299.32438    
    101500  -29755.114      4693.1408      92733.119     -127439.39      4951.1549      296.56272    
    102000  -29649.215      4724.4103      93011.348     -127438.69      4778.1289      298.53866    
    102500  -29823.145      4771.7111      92780.981     -127441.69      4837.5682      301.52763    
    103000  -29891.234      4769.2222      92486.291     -127445.81      5068.2828      301.37036    
    103500  -29937.925      4726.395       92539.554     -127437.82      4960.339       298.66408    
    104000  -29831.379      4699.7486      92612.605     -127442.06      4998.0784      296.98027    
    104500  -29775.313      4688.259       92699.499     -127443.41      4968.5996      296.25424    
    105000  -29708.163      4734.1988      92907.896     -127445.99      4829.9256      299.15721    
    105500  -29887.723      4729.7483      92666.077     -127436.15      4882.3454      298.87597    
    106000  -29806.351      4726.5999      92759.017     -127438.12      4872.7499      298.67703    
    106500  -29634.151      4675.686       92935.657     -127437.94      4868.1336      295.45974    
    107000  -29664.799      4723.414       92844.289     -127443.31      4934.2229      298.4757     
    107500  -29787.46       4769.4386      92825.47      -127441.35      4828.4236      301.38403    
    108000  -29710.445      4895.1262      92927.983     -127443.13      4804.7016      309.32631    
    108500  -29829.442      4739.4012      92783.895     -127443.67      4830.3327      299.48595    
    109000  -29831.424      4738.8827      92590.982     -127432.48      5010.0696      299.45318    
    109500  -29726.419      4722.2815      93003.033     -127444.47      4715.0179      298.40414    
    110000  -29795.875      4770.7694      92892.682     -127440.4       4751.8474      301.46813    
    110500  -29766.206      4789.0855      92652.517     -127446.91      5028.1871      302.62553    
    111000  -29917.414      4781.2753      92518.438     -127446.78      5010.9324      302.132      
    111500  -29812.888      4709.4222      92736.879     -127447.11      4897.3397      297.59155    
    112000  -29974.547      4677.3949      92428.58      -127436.14      5033.0091      295.56773    
    112500  -29869.27       4794.7627      92567.452     -127443.26      5006.5411      302.98428    
    113000  -29810.627      4740.8238      92743.44      -127446.47      4892.4074      299.57584    
    113500  -29674.84       4802.3823      92752.32      -127438.38      5011.2152      303.46576    
    114000  -29707.817      4744.6857      92893.53      -127441.47      4840.1217      299.81988    
    114500  -29856.723      4742.1312      92838.554     -127450.86      4755.5835      299.65846    
    115000  -29808.738      4639.9838      92889.946     -127437.02      4738.3332      293.2037     
    115500  -29971.603      4817.79        92495.546     -127439.44      4972.2864      304.43938    
    116000  -29670.587      4769.3891      92861.213     -127441.02      4909.223       301.3809     
    116500  -29883.413      4777.0195      92556.199     -127441.16      5001.5454      301.86307    
    117000  -29765.842      4698.2207      92746.682     -127438.62      4926.0996      296.88372    
    117500  -29831.33       4670.7313      92872.274     -127448.85      4745.2482      295.14665    
    118000  -29906.567      4711.9744      92673.858     -127443.65      4863.2229      297.75283    
    118500  -29808.544      4658.2508      92820.062     -127437.89      4809.2797      294.358      
    119000  -29819.384      4769.5291      92652.913     -127433.73      4961.4351      301.38975    
    119500  -29900.454      4772.3019      92720.583     -127435.99      4814.9577      301.56496    
    120000  -29947.155      4731.9452      92584.592     -127433.45      4901.6991      299.01479    
    120500  -29696.133      4804.3915      92958.689     -127442.18      4787.3627      303.59272    
    121000  -29793.644      4737.6106      92679.973     -127438.89      4965.273       299.3728     
    121500  -29764.101      4769.2889      92667.568     -127442.55      5010.8854      301.37457    
    122000  -29806.787      4729.9199      92868.363     -127445.42      4770.266       298.88682    
    122500  -29766.271      4756.4387      92769.647     -127437.82      4901.9018      300.56256    
    123000  -29864.241      4755.7066      92726.749     -127434.86      4843.8692      300.5163     
    123500  -29795.167      4713.9601      92855.604     -127439.02      4788.2444      297.8783     
    124000  -29686.683      4652.7127      92682.466     -127439.83      5070.6801      294.00804    
    124500  -29775.556      4735.1248      92752.005     -127445.66      4918.0969      299.21572    
    125000  -29875.015      4710.494       92457.443     -127449.81      5117.3504      297.65928    
    125500  -29922.27       4769.9986      92375.077     -127435.64      5138.2913      301.41941    
    126000  -29731.003      4713.2191      92757.596     -127434.91      4946.315       297.83148    
    126500  -29974.71       4709.0453      92671.882     -127438.22      4791.6315      297.56774    
    127000  -29931.01       4686.5048      92681.649     -127444.04      4831.3842      296.14339    
    127500  -29805.963      4755.8315      92817.168     -127439.2       4816.0644      300.52419    
    128000  -29841.711      4773.1206      92707.144     -127439.41      4890.558       301.6167     
    128500  -29727.979      4728.0883      92763.99      -127436.64      4944.6755      298.77107    
    129000  -29843.703      4792.8575      92777.647     -127442.94      4821.5909      302.86389    
    129500  -29567.693      4693.241       92994.535     -127428.74      4866.5091      296.56905    
    130000  -29603.581      4837.5601      93140.168     -127428.54      4684.7907      305.68867    
    130500  -29706.132      4736.9406      93072.735     -127436.82      4657.957       299.33046    
    131000  -29845.301      4760.192       92635.025     -127443.66      4963.3306      300.79973    
    131500  -29792.085      4804.6499      92660.172     -127434.53      4982.2741      303.60906    
    132000  -29892.013      4821.9165      92673.676     -127437.68      4871.9882      304.70014    
    132500  -29808.383      4709.8761      92644.992     -127437.47      4984.0965      297.62024    
    133000  -29791.101      4702.6265      92609.229     -127441.54      5041.2106      297.16213    
    133500  -29787.948      4629.8872      92859.657     -127447.71      4800.1056      292.56568    
    134000  -29657.679      4827.6347      92939.253     -127435.08      4838.1489      305.06148    
    134500  -29824.876      4713.5151      92702.082     -127431.19      4904.2279      297.85019    
    135000  -29766.227      4828.4016      92927.578     -127444.84      4751.0352      305.10994    
    135500  -29711.541      4771.8405      92940.248     -127446.99      4795.205       301.53581    
    136000  -29769.242      4765.3434      92702.78      -127440.49      4968.4695      301.12525    
    136500  -29859.94       4754.1008      92572.209     -127443.83      5011.6839      300.41482    
    137000  -29812.129      4645.0705      92837.613     -127443.95      4794.2082      293.52513    
    137500  -29777.328      4749.061       92664.847     -127435.69      4993.5115      300.09636    
    138000  -29823.673      4747.0555      92720.197     -127445.67      4901.8001      299.96963    
    138500  -29737.567      4717.8387      92787.215     -127440.13      4915.3438      298.1234     
    139000  -29711.814      4659.089       92823.805     -127448.05      4912.431       294.41097    
    139500  -29728.259      4726.2276      92901.026     -127439.34      4810.0579      298.65349    
    140000  -29722.849      4774.8868      93025.907     -127439.39      4690.6303      301.72831    
    140500  -29898.511      4673.1398      92586.381     -127442.37      4957.4784      295.29884    
    141000  -29875.873      4745.5507      92448.604     -127439.07      5114.5931      299.87454    
    141500  -29841.335      4726.3599      92546.383     -127436.58      5048.862       298.66186    
    142000  -29679.277      4805.6005      92758.172     -127444.84      5007.3879      303.66913    
    142500  -29772.499      4709.6059      92907.222     -127435.88      4756.155       297.60316    
    143000  -29858.526      4782.9347      92611.457     -127430.55      4960.5675      302.23686    
    143500  -29975.526      4709.391       92394.622     -127433.42      5063.2691      297.58958    
    144000  -29766.297      4700.3367      92732.109     -127440.38      4941.9768      297.01743    
    144500  -29822.496      4677.2971      92703.814     -127434.44      4908.1267      295.56154    
    145000  -29739.02       4784.8997      92676.184     -127439.45      5024.2435      302.36102    
    145500  -29737.986      4772.1621      92870.027     -127440.57      4832.5534      301.55613    
    146000  -29669.841      4825.6         92989.616     -127436.53      4777.0679      304.9329     
    146500  -29731.229      4720.7829      92882.093     -127439.89      4826.5645      298.30945    
    147000  -29821.224      4743.8441      92625.55      -127446.27      4999.4982      299.7667     
    147500  -29863.689      4739.5206      92726.322     -127442.12      4852.1105      299.49349    
    148000  -29780.511      4722.446       92818.491     -127438.95      4839.9495      298.41453    
    148500  -29789.576      4721.2135      92782.027     -127439.71      4868.1022      298.33665    
    149000  -29786.998      4781.4656      92758.821     -127440.89      4895.0693      302.14402    
    149500  -29736.09       4702.1814      92757.607     -127435.8       4942.1008      297.134      
    150000  -29672.722      4735.2171      92981.636     -127436.17      4781.8133      299.22155    
    150500  -29787.482      4707.3573      92692.745     -127438.16      4957.9354      297.46107    
    151000  -29832.316      4824.767       92757.825     -127439.74      4849.6015      304.88027    
    151500  -29690.458      4785.0392      92966.616     -127432.27      4775.2004      302.36984    
    152000  -29691.037      4778.8107      92988.229     -127444.15      4764.8888      301.97626    
    152500  -29579.168      4765.5997      93195.889     -127443.03      4667.9701      301.14145    
    153000  -29713.073      4694.0999      93014.199     -127438.31      4711.0358      296.62332    
    153500  -29733.325      4765.3829      92851.321     -127440.95      4856.3026      301.12775    
    154000  -29807.189      4645.9623      92836.697     -127445.09      4801.2056      293.58148    
    154500  -29859.596      4678.8987      92893.927     -127441.84      4688.3162      295.66275    
    155000  -29751.225      4737.4876      92900.518     -127441.23      4789.4864      299.36502    
    155500  -29853.57       4792.9691      92499.367     -127447.33      5094.3894      302.87094    
    156000  -29911.769      4778.5061      92680.676     -127435.73      4843.2818      301.95701    
    156500  -29831.098      4674.7402      92542.845     -127441.1       5067.1529      295.39997    
    157000  -29732.476      4707.3177      92877.755     -127436.94      4826.7069      297.45857    
    157500  -29803.03       4757.2886      92845.301     -127444.49      4796.1624      300.61626    
    158000  -29859.023      4807.0291      92596.397     -127442.86      4987.4363      303.7594     
    158500  -29836.338      4770.0844      92646.19      -127443.86      4961.3286      301.42484    
    159000  -29812.576      4684.7951      92690.88      -127439.61      4936.1503      296.03535    
    159500  -29663.163      4730.9407      92876.788     -127438.94      4898.9888      298.95132    
    160000  -29775.934      4759.4204      92748.743     -127442.05      4917.371       300.75097    
    160500  -29927.264      4802.7728      92566.724     -127446.84      4952.8508      303.49044    
    161000  -29772.448      4743.609       92827.682     -127444.12      4843.9941      299.75184    
    161500  -29782.208      4791.262       92756.028     -127444.26      4906.0248      302.76307    
    162000  -29734.096      4799.224       92853.423     -127436.48      4848.9649      303.26619    
    162500  -29774.625      4906.5194      92693.427     -127428.21      4960.1581      310.04626    
    163000  -29840.64       4746.6894      92757.056     -127448.18      4850.4827      299.94649    
    163500  -29804.42       4743.7579      92647.336     -127441.9       4990.1425      299.76125    
    164000  -29904.072      4779.2294      92676.961     -127446.15      4865.1207      302.00272    
    164500  -29746.408      4757.0965      92773.233     -127445.96      4926.3201      300.60412    
    165000  -29835.877      4778.7229      92720.806     -127444.22      4887.5395      301.97071    
    165500  -29815.486      4756.3301      92764.969     -127445.9       4865.442       300.55569    
    166000  -29759.624      4816.8211      92782.226     -127441.07      4899.2172      304.37816    
    166500  -29837.196      4716.3525      92717.757     -127442.81      4887.8589      298.02948    
    167000  -29845.336      4670.6824      92549.712     -127433.77      5038.7224      295.14356    
    167500  -29627.322      4810.4177      92922.849     -127440.53      4890.3571      303.97352    
    168000  -29729.045      4674.9077      92875.603     -127437.82      4833.1711      295.41056    
    168500  -29881.553      4768.4604      92692.896     -127437.61      4863.1608      301.32222    
    169000  -29692.24       4728.748       92973.318     -127439.45      4773.8944      298.81277    
    169500  -29836.796      4690.5719      92832.298     -127439.15      4770.0579      296.40039    
    170000  -29722.275      4600.4411      92812.755     -127441.82      4906.7937      290.70497    
    170500  -29679.766      4769.6281      92993.255     -127441.16      4768.1397      301.396      
    171000  -29716.214      4801.1543      92943.612     -127440.67      4780.8472      303.38817    
    171500  -29807.834      4674.8755      92751.786     -127444.11      4884.4923      295.40852    
    172000  -29779.625      4668.702       92656.823     -127439.51      5003.0584      295.01841    
    172500  -29730.97       4642.1903      92789.945     -127434.57      4913.6537      293.34312    
    173000  -29634.552      4812.5359      92708.228     -127432.71      5089.9312      304.10738    
    173500  -29854.872      4703.7131      92652.571     -127431.91      4924.463       297.23079    
    174000  -29769.025      4696.3136      92902.829     -127437.76      4765.9045      296.76321    
    174500  -29741.238      4895.7866      92899.063     -127445.03      4804.7263      309.36804    
    175000  -29795.893      4793.1912      92669.117     -127443.18      4978.1708      302.88497    
    175500  -29815.888      4786.6842      92716.979     -127446.94      4914.0746      302.47379    
    176000  -30026.429      4696.4945      92526.848     -127442.49      4889.21        296.77465    
    176500  -29805.085      4693.6513      92581.01      -127440.05      5053.9562      296.59498    
    177000  -29766.591      4703.286       92770.602     -127438.93      4901.7397      297.2038     
    177500  -29504.115      4749.7073      93225.153     -127434.34      4705.0686      300.13719    
    178000  -29791.26       4730.0986      92831.752     -127444.69      4821.6784      298.89811    
    178500  -29890.49       4718.5423      92701.965     -127433.97      4841.5115      298.16786    
    179000  -29915.029      4634.7037      92588.714     -127441.03      4937.2892      292.87004    
    179500  -29744.47       4679.9338      92817.724     -127440.65      4878.4573      295.72816    
    180000  -29982.842      4678.3202      92522.9       -127439.43      4933.6934      295.62619    
    180500  -29719.679      4741.422       92864.949     -127446.4       4861.7706      299.61364    
    181000  -29702.952      4782.8757      92866.274     -127434.71      4865.4848      302.23313    
    181500  -29727.952      4742.4972      92824.74      -127442.9       4890.2063      299.68158    
    182000  -29760.879      4720.9904      92839.778     -127442.37      4841.7088      298.32256    
    182500  -29798.754      4753.7837      92761.373     -127443.46      4883.3323      300.39478    
    183000  -29586.942      4755.9459      92942.788     -127439.4       4909.6754      300.53141    
    183500  -29705.827      4674.6856      92883.609     -127437.78      4848.3398      295.39652    
    184000  -29720.454      4729.2438      92873.765     -127436.06      4841.8389      298.8441     
    184500  -30016.158      4772.0032      92514.384     -127437.76      4907.2219      301.54609    
    185000  -29864.9        4666.3127      92791.76      -127440.59      4783.9302      294.86743    
    185500  -29887.275      4738.5468      92628.053     -127442.24      4926.913       299.43195    
    186000  -29828.976      4720.8475      92794.806     -127438.8       4815.014       298.31353    
    186500  -29732.662      4718.2563      92901.267     -127438.27      4804.3392      298.14978    
    187000  -29842.076      4741.2196      92751.043     -127440.34      4847.2213      299.60085    
    187500  -29809.311      4700.3428      92817.967     -127443.3       4816.0248      297.01782    
    188000  -29793.062      4860.5527      92762.777     -127440.7       4884.8595      307.14159    
    188500  -29823.777      4759.0415      92571.936     -127438.97      5043.2592      300.72703    
    189000  -29796.514      4682.1339      92546.38      -127437.13      5094.2366      295.86719    
    189500  -29644.147      4727.1257      93005.455     -127440.2       4790.601       298.71025    
    190000  -29811.817      4694.1347      92645.311     -127445.85      4988.7184      296.62553    
    190500  -29789.69       4831.4046      92607.833     -127440.56      5043.042       305.2997     
    191000  -29759.894      4775.3116      92725.799     -127441.47      4955.7802      301.75515    
    191500  -29795.457      4662.9621      92797.524     -127442.34      4849.3601      294.65571    
    192000  -29776.311      4732.5342      92844.227     -127445.2       4824.6666      299.05201    
    192500  -29670.954      4848.2874      92958.077     -127445.71      4816.6794      306.36654    
    193000  -29780.311      4732.0226      92785.835     -127434.89      4868.7454      299.01969    
    193500  -29848.053      4614.5472      92706.606     -127437.29      4882.6338      291.59634    
    194000  -29944.641      4811.7542      92640.792     -127444.57      4859.1328      304.05798    
    194500  -29826.484      4724.8545      92746.55      -127442.95      4869.9153      298.56673    
    195000  -29814.326      4646.1533      92688.944     -127439.8       4936.5293      293.59355    
    195500  -29724.766      4727.5946      92937.128     -127443.47      4781.5778      298.73988    
    196000  -29566.333      4818.0371      92983.121     -127444.31      4894.8518      304.455      
    196500  -29825.612      4736.064       92757.99      -127444.5       4860.8972      299.27506    
    197000  -29759.034      4830.0197      92693.678     -127436.03      4983.3156      305.21219    
    197500  -29733.016      4785.1061      92793.872     -127433.42      4906.5278      302.37407    
    198000  -29793.947      4727.0567      92738.683     -127441.55      4908.9209      298.70589    
    198500  -29988.965      4723.6744      92440.471     -127437.36      5007.922       298.49216    
    199000  -29892.7        4790.3864      92463.918     -127440.31      5083.6924      302.70774    
    199500  -29801.84       4635.6453      92667.046     -127442.14      4973.257       292.92954    
    200000  -29678.846      4847.3859      92982.634     -127437.8       4776.3146      306.30957    
    200500  -29864.905      4779.854       92761.819     -127443.27      4816.5496      302.04218    
    201000  -29680.614      4736.0016      92884.642     -127432.62      4867.3624      299.27112    
    201500  -29844.603      4771.7699      92683.788     -127441.98      4913.5874      301.53135    
    202000  -29824.338      4692.2277      92790.115     -127437.66      4823.2035      296.50502    
    202500  -29809.704      4709.3385      92679.956     -127429.21      4939.5485      297.58626    
    203000  -29698.736      4761.9504      92826.151     -127426.96      4902.0697      300.91085    
    203500  -29684.09       4845.6909      92865.681     -127438.52      4888.7516      306.20246    
    204000  -29834.362      4750.6665      92645.705     -127441.01      4960.9437      300.19781    
    204500  -29735.173      4773.482       92798.556     -127437.27      4903.5392      301.63954    
    205000  -29741.897      4804.7102      92920.385     -127444.04      4781.7607      303.61287    
    205500  -29757.378      4701.8381      92910.358     -127438.55      4770.8117      297.11231    
    206000  -29798.887      4734.218       92826.123     -127436.39      4811.3753      299.15841    
    206500  -29790.51       4614.9416      92605.137     -127430.23      5034.5853      291.62126    
    207000  -29933.51       4691.3104      92537.491     -127440.88      4969.8789      296.44706    
    207500  -29718.777      4795.4085      92818.431     -127436.26      4899.0515      303.02509    
    208000  -29791.897      4720.0042      92860.438     -127443.72      4791.3821      298.26024    
    208500  -29720.712      4685.056       92802.14      -127438.17      4915.3195      296.05184    
    209000  -29755.874      4758.3825      92877.585     -127441.04      4807.5806      300.68539    
    209500  -29794.174      4738.9527      92575.431     -127442.99      5073.3851      299.4576     
    210000  -29667.982      4717.8242      92846.206     -127441.63      4927.4405      298.12248    
    210500  -29816.646      4779.3226      92739.772     -127431.21      4874.7893      302.0086     
    211000  -29851.781      4836.3116      92711.886     -127434.52      4870.8514      305.60978    
    211500  -29818.449      4715.7048      92679.443     -127433.08      4935.1895      297.98855    
    212000  -29751.345      4725.527       92895.048     -127436.29      4789.8985      298.60923    
    212500  -29711.285      4793.4133      92915.357     -127435.94      4809.2958      302.89901    
    213000  -29734.446      4751.0721      92845.945     -127437.12      4856.731       300.22344    
    213500  -29704.985      4709.2063      92830.541     -127434.38      4898.8524      297.57791    
    214000  -29860.061      4736.2622      92537.726     -127438.11      5040.3255      299.28759    
    214500  -29713.497      4731.7771      92766.333     -127438.79      4958.9621      299.00417    
    215000  -29814.59       4760.3633      92685.124     -127444.66      4944.9509      300.81056    
    215500  -29769.417      4798.787       92834.702     -127438.14      4834.0213      303.23858    
    216000  -29783.761      4786.6109      92827.277     -127437.18      4826.1393      302.46916    
    216500  -29879.685      4817.0738      92753.283     -127445.57      4812.6051      304.39413    
    217000  -29815.048      4670.5914      92733.218     -127440.2       4891.9368      295.13781    
    217500  -29654.321      4797.4005      92875.261     -127440.44      4910.8613      303.15096    
    218000  -29776.97       4729.2628      92814.812     -127444.23      4852.4494      298.84529    
    218500  -29817.949      4806.4368      92713.297     -127442.19      4910.9398      303.72197    
    219000  -29675.159      4744.731       92854.86      -127441.71      4911.687       299.82274    
    219500  -29778.188      4778.5261      92821.514     -127439.35      4839.6509      301.95828    
    220000  -29861.363      4761.9762      92472.182     -127438.41      5104.8622      300.91248    
Loop time of 8513.7 on 30 procs for 200000 steps with 9401 atoms

Performance: 4.059 ns/day, 5.912 hours/ns, 23.492 timesteps/s, 220.844 katom-step/s
91.6% CPU use with 30 MPI tasks x 1 OpenMP threads

MPI task timing breakdown:
Section |  min time  |  avg time  |  max time  |%varavg| %total
---------------------------------------------------------------
Pair    | 540.51     | 1020.2     | 1220.8     | 673.1 | 11.98
Bond    | 0.16316    | 0.2292     | 0.31736    |   7.2 |  0.00
Kspace  | 2749.5     | 2938.8     | 3413.6     | 395.3 | 34.52
Neigh   | 451.09     | 453.4      | 456.66     |   7.4 |  5.33
Comm    | 261.4      | 292.05     | 315.52     |  89.6 |  3.43
Output  | 9.1844     | 12.445     | 15.285     |  51.5 |  0.15
Modify  | 3766.6     | 3783.3     | 3800.5     |  15.8 | 44.44
Other   |            | 13.21      |            |       |  0.16

Nlocal:        313.367 ave         361 max         270 min
Histogram: 3 4 6 3 2 0 1 2 7 2
Nghost:        7650.77 ave        9390 max        6002 min
Histogram: 12 0 0 0 0 0 1 11 0 6
Neighs:         213180 ave      265929 max      115102 min
Histogram: 4 2 0 0 0 1 5 6 8 4

Total # of neighbors = 6395386
Ave neighs/atom = 680.28784
Ave special neighs/atom = 1.6919477
Neighbor list builds = 19298
Dangerous builds = 13162
    #write_data structure.data
    undump alldump
    next l
    unfix conp2
    jump SELF loop_start
    variable l_tf equal ${l}/2
    variable l_tf equal 2/2
    # fix id group1 electrode/conp psi1 eta couple group2 psi2 write_inv
    # fix conp1 lower electrode/conp 0.0 5 couple upper 0.0 write_inv inv.out etypes 1*6 # Write call to not have to determine the matrix twice
    fix conp1 lower electrode/conp 0.0 2.925 couple upper 0.0# Write call to not have to determine the matrix twice
1440 atoms in group conp_group
    fix_modify conp1 tf 1 ${l_tf} ${d}
    fix_modify conp1 tf 1 1 ${d}
    fix_modify conp1 tf 1 1 6.81038626666667
    fix_modify conp1 tf 6 ${l_tf} ${d}
    fix_modify conp1 tf 6 1 ${d}
    fix_modify conp1 tf 6 1 6.81038626666667
    # fix conp1 lower electrode/conp 0.0 5 couple upper 0.0 read_inv inv.out # Write call to not have to determine the matrix twice

    # ======== equilibrate for ? ns ========
    reset_timestep 0
    thermo 50
    # dump equilxtc h2o xtc 50 equil.xtc
    run 500 # 1 ps, ~ correlation time of spce water
PPPM/electrode initialization ...
  using 12-bit tables for long-range coulomb (src/kspace.cpp:342)
  G vector (1/distance) = 0.23783325
  grid = 40 45 100
  stencil order = 5
  estimated absolute RMS force accuracy = 0.00036352839
  estimated relative force accuracy = 1.094755e-06
  using double precision FFTW3
  3d grid and FFT values/proc = 45144 22200
Generated 15 of 15 mixed pair_coeff terms from arithmetic mixing rule
WARNING: Neighbor exclusions used with KSpace solver may give inconsistent Coulombic energies (src/neighbor.cpp:654)
Neighbor list info ...
  update: every = 1 steps, delay = 10 steps, check = yes
  max neighbors/atom: 2000, page size: 100000
  master list distance cutoff = 16
  ghost atom cutoff = 16
  binsize = 8, bins = 6 6 7
  2 neighbor lists, perpetual/occasional/extra = 2 0 0
  (1) pair lj/cut/coul/long, perpetual
      attributes: half, newton on
      pair build: half/bin/newton
      stencil: half/bin/3d
      bin: standard
  (2) fix electrode/conp, perpetual, copy from (1)
      attributes: half, newton on
      pair build: copy
      stencil: none
      bin: none
Per MPI rank memory allocation (min/avg/max) = 27.35 | 27.86 | 29.57 Mbytes
   Step         PotEng         KinEng         E_coul         E_long         E_vdwl      c_watertemp  
         0  -29847.671      4761.9762      92485.565     -127438.1       5104.8622      300.91248    
        50  -29799.696      4734.3796      92527.498     -127440.73      5113.5396      299.16862    
       100  -29784.691      4727.7194      92867.768     -127451.41      4798.9488      298.74776    
       150  -29772.308      4729.91        92899.67      -127444.54      4772.5603      298.88619    
       200  -29766.845      4748.0933      92749.737     -127444.08      4927.4972      300.03521    
       250  -29662.255      4673.8917      92804.713     -127445.59      4978.6205      295.34636    
       300  -29659.078      4695.9095      92931.65      -127445.75      4855.0186      296.73767    
       350  -29717.157      4768.0222      92932.951     -127448.3       4798.1903      301.29452    
       400  -29719.044      4781.176       92986.875     -127444.2       4738.2832      302.12572    
       450  -29680.606      4777.747       92977.77      -127446.47      4788.0898      301.90905    
       500  -29644.266      4787.9399      92901.789     -127450.94      4904.8892      302.55314    
Loop time of 14.1451 on 30 procs for 500 steps with 9401 atoms

Performance: 6.108 ns/day, 3.929 hours/ns, 35.348 timesteps/s, 332.307 katom-step/s
94.2% CPU use with 30 MPI tasks x 1 OpenMP threads

MPI task timing breakdown:
Section |  min time  |  avg time  |  max time  |%varavg| %total
---------------------------------------------------------------
Pair    | 1.163      | 2.6772     | 3.6467     |  48.1 | 18.93
Bond    | 0.00033037 | 0.00062653 | 0.0010141  |   0.0 |  0.00
Kspace  | 3.3914     | 4.3563     | 5.8746     |  37.7 | 30.80
Neigh   | 1.0332     | 1.04       | 1.0486     |   0.4 |  7.35
Comm    | 0.38424    | 0.42239    | 0.46126    |   3.3 |  2.99
Output  | 0.0010777  | 0.0011078  | 0.0014519  |   0.2 |  0.01
Modify  | 5.6009     | 5.6271     | 5.6499     |   0.6 | 39.78
Other   |            | 0.02037    |            |       |  0.14

Nlocal:        313.367 ave         366 max         273 min
Histogram: 4 7 5 1 1 0 1 5 3 3
Nghost:        7646.43 ave        9333 max        6010 min
Histogram: 12 0 0 0 0 0 0 12 0 6
Neighs:         212960 ave      271228 max      124138 min
Histogram: 5 1 0 0 0 3 4 11 4 2

Total # of neighbors = 6388805
Ave neighs/atom = 679.58781
Ave special neighs/atom = 1.6919477
Neighbor list builds = 48
Dangerous builds = 31

    write_dump solvent xyz water_ions.xyz
    write_data equilibrated_structure.data
System init for write_data ...
PPPM/electrode initialization ...
  using 12-bit tables for long-range coulomb (src/kspace.cpp:342)
  G vector (1/distance) = 0.23783322
  grid = 40 45 100
  stencil order = 5
  estimated absolute RMS force accuracy = 0.0003635227
  estimated relative force accuracy = 1.0947378e-06
  using double precision FFTW3
  3d grid and FFT values/proc = 45144 22200
Generated 15 of 15 mixed pair_coeff terms from arithmetic mixing rule
WARNING: Neighbor exclusions used with KSpace solver may give inconsistent Coulombic energies (src/neighbor.cpp:654)

    ## ======== production run ========


    reset_timestep 0
    # Dump to also show the changing charge of the walls
    dump alldump all custom 50 wallcharge_${l_tf}.lammpstrj id type x y z q
    dump alldump all custom 50 wallcharge_1.lammpstrj id type x y z q
    thermo 500 # frequency log file
    #
    variable doutx equal 50 # 0.1ps
    #
    #dump xtc all xtc ${doutx} traj.xtc
    run 20000
PPPM/electrode initialization ...
  using 12-bit tables for long-range coulomb (src/kspace.cpp:342)
  G vector (1/distance) = 0.23783322
  grid = 40 45 100
  stencil order = 5
  estimated absolute RMS force accuracy = 0.0003635227
  estimated relative force accuracy = 1.0947378e-06
  using double precision FFTW3
  3d grid and FFT values/proc = 45144 22200
Generated 15 of 15 mixed pair_coeff terms from arithmetic mixing rule
WARNING: Neighbor exclusions used with KSpace solver may give inconsistent Coulombic energies (src/neighbor.cpp:654)
Per MPI rank memory allocation (min/avg/max) = 27.35 | 27.86 | 29.57 Mbytes
   Step         PotEng         KinEng         E_coul         E_long         E_vdwl      c_watertemp  
         0  -29644.266      4787.9399      92901.772     -127450.93      4904.8892      302.55314    
       500  -29641.058      4614.8498      93028.723     -127449.8       4780.0205      291.61546    
      1000  -29802.046      4763.8176      92745.262     -127450.96      4903.6503      301.02884    
      1500  -29818.527      4708.1548      92555.377     -127451.41      5077.5077      297.51147    
      2000  -29973.097      4729.6914      92537.884     -127455.32      4944.3403      298.87238    
      2500  -29811.31       4653.6905      92750.762     -127455.05      4892.9826      294.06983    
      3000  -29721.208      4791.7446      92814.661     -127450.38      4914.507       302.79356    
      3500  -29850.157      4878.4934      92564.872     -127450.04      5035.0078      308.27527    
      4000  -29788.366      4629.1068      92647.692     -127454.25      5018.1892      292.51637    
      4500  -29789.453      4723.1524      92865.683     -127450.55      4795.41        298.45917    
      5000  -29813.17       4851.2039      92678.225     -127457.32      4965.9259      306.55083    
      5500  -29692.696      4831.5476      92908.701     -127456.07      4854.669       305.30874    
      6000  -29847.169      4730.5406      92755.796     -127453.87      4850.907       298.92604    
      6500  -29762.646      4729.535       92818.69      -127454.04      4872.702       298.86249    
      7000  -29741.529      4794.1559      92986.911     -127452.12      4723.6764      302.94594    
      7500  -29773.798      4733.941       92738.712     -127451.88      4939.3689      299.14091    
      8000  -29800.239      4755.6472      92881.558     -127451.98      4770.185       300.51254    
      8500  -29797.542      4794.4976      92830.585     -127456.79      4828.6585      302.96752    
      9000  -29865.964      4717.4318      92460.183     -127448.74      5122.5895      298.09768    
      9500  -29938.405      4770.0752      92529.834     -127450.4       4982.1569      301.42426    
     10000  -29778.612      4763.9882      92738.944     -127452.88      4935.3219      301.03961    
     10500  -29936.192      4776.5318      92367.485     -127457.31      5153.6354      301.83225    
     11000  -29791.861      4727.0584      92869.952     -127446.15      4784.3378      298.706      
     11500  -29869.64       4626.7012      92538.512     -127450.43      5042.2755      292.36435    
     12000  -29934.674      4776.5166      92609.49      -127452.5       4908.3378      301.83129    
     12500  -29768.767      4715.2502      92915.876     -127442.69      4758.0461      297.95983    
     13000  -29976.189      4793.4368      92559.494     -127450.55      4914.87        302.90049    
     13500  -29927.609      4704.8543      92546.577     -127461.36      4987.177       297.3029     
     14000  -29817.688      4718.3186      92727.99      -127456.9       4911.2178      298.15372    
     14500  -29947.155      4807.1933      92498.075     -127454.14      5008.9057      303.76977    
     15000  -29810.879      4646.0085      92699.941     -127452.39      4941.5743      293.5844     
     15500  -29691.833      4706.274       92991.35      -127446.41      4763.2283      297.39262    
     16000  -29633.158      4637.0002      92986.043     -127454.69      4835.4885      293.01516    
     16500  -29799.673      4811.8434      92851.851     -127452.62      4801.101       304.06362    
     17000  -29742.25       4797.1158      92732.117     -127454.92      4980.5516      303.13297    
     17500  -29926.083      4743.0365      92474.866     -127448.9       5047.9503      299.71566    
     18000  -29760.697      4707.4782      92845.453     -127447.3       4841.1517      297.46871    
     18500  -29735.131      4723.9728      92832.468     -127452.72      4885.1166      298.51101    
     19000  -29869.632      4688.6816      92763.258     -127458.52      4825.6329      296.28094    
     19500  -29746.97       4863.8225      92842.315     -127448.93      4859.6469      307.34821    
     20000  -29761.92       4702.4826      92963.281     -127452.83      4727.6246      297.15304    
Loop time of 579.55 on 30 procs for 20000 steps with 9401 atoms

Performance: 5.963 ns/day, 4.025 hours/ns, 34.510 timesteps/s, 324.424 katom-step/s
94.4% CPU use with 30 MPI tasks x 1 OpenMP threads

MPI task timing breakdown:
Section |  min time  |  avg time  |  max time  |%varavg| %total
---------------------------------------------------------------
Pair    | 48.968     | 109.24     | 149.96     | 293.6 | 18.85
Bond    | 0.011834   | 0.026494   | 0.038852   |   4.4 |  0.00
Kspace  | 137.07     | 178.02     | 238.9      | 230.3 | 30.72
Neigh   | 42.654     | 42.957     | 43.326     |   2.8 |  7.41
Comm    | 14.845     | 17.205     | 19.113     |  27.6 |  2.97
Output  | 0.62141    | 0.82244    | 1.0181     |  13.1 |  0.14
Modify  | 228.9      | 230.44     | 231.86     |   4.7 | 39.76
Other   |            | 0.8338     |            |       |  0.14

Nlocal:        313.367 ave         363 max         273 min
Histogram: 5 2 6 5 0 0 2 3 2 5
Nghost:         7659.9 ave        9405 max        6029 min
Histogram: 12 0 0 0 0 0 8 4 0 6
Neighs:         213214 ave      267045 max      112287 min
Histogram: 1 4 1 0 0 0 5 9 5 5

Total # of neighbors = 6396417
Ave neighs/atom = 680.39751
Ave special neighs/atom = 1.6919477
Neighbor list builds = 1928
Dangerous builds = 1312
    unfix conp1
    fix conp2 lower electrode/conp 0.5 2.925 couple upper -0.5
1440 atoms in group conp_group
    fix_modify conp2 tf 1 ${l_tf} ${d}
    fix_modify conp2 tf 1 1 ${d}
    fix_modify conp2 tf 1 1 6.81038626666667
    fix_modify conp2 tf 6 ${l_tf} ${d}
    fix_modify conp2 tf 6 1 ${d}
    fix_modify conp2 tf 6 1 6.81038626666667
    run         200000 # 400 ps
PPPM/electrode initialization ...
  using 12-bit tables for long-range coulomb (src/kspace.cpp:342)
  G vector (1/distance) = 0.23783321
  grid = 40 45 100
  stencil order = 5
  estimated absolute RMS force accuracy = 0.00036352055
  estimated relative force accuracy = 1.0947313e-06
  using double precision FFTW3
  3d grid and FFT values/proc = 45144 22200
Generated 15 of 15 mixed pair_coeff terms from arithmetic mixing rule
WARNING: Neighbor exclusions used with KSpace solver may give inconsistent Coulombic energies (src/neighbor.cpp:654)
Neighbor list info ...
  update: every = 1 steps, delay = 10 steps, check = yes
  max neighbors/atom: 2000, page size: 100000
  master list distance cutoff = 16
  ghost atom cutoff = 16
  binsize = 8, bins = 6 6 7
  2 neighbor lists, perpetual/occasional/extra = 2 0 0
  (1) pair lj/cut/coul/long, perpetual
      attributes: half, newton on
      pair build: half/bin/newton
      stencil: half/bin/3d
      bin: standard
  (2) fix electrode/conp, perpetual, copy from (1)
      attributes: half, newton on
      pair build: copy
      stencil: none
      bin: none
Per MPI rank memory allocation (min/avg/max) = 28.61 | 29.13 | 30.84 Mbytes
   Step         PotEng         KinEng         E_coul         E_long         E_vdwl      c_watertemp  
     20000  -29759.481      4702.4826      92963.515     -127450.62      4727.6246      297.15304    
     20500  -29774.273      4745.8695      92778.954     -127450.3       4897.0764      299.89469    
     21000  -29749.329      4801.6379      92846.981     -127447.55      4851.2401      303.41873    
     21500  -29706.498      4794.3451      92844.657     -127445.4       4894.246       302.95789    
     22000  -29787.528      4643.0056      92571.829     -127440.79      5081.4326      293.39464    
     22500  -29774.199      4724.7689      92702.803     -127439.51      4962.5114      298.56132    
     23000  -29731.67       4726.0424      92908.414     -127441.29      4801.2023      298.64179    
     23500  -29885.243      4683.3856      92665.332     -127444.76      4894.1847      295.94628    
     24000  -29843.272      4662.5243      92790.58      -127445.47      4811.6222      294.62805    
     24500  -29831.232      4677.4638      92753.097     -127446.58      4862.2508      295.57208    
     25000  -29683.028      4723.9669      92806.771     -127447.99      4958.1877      298.51065    
     25500  -29700.629      4705.3755      92868.273     -127439.6       4870.7021      297.33584    
     26000  -29956.527      4808.0199      92621.747     -127450.08      4871.8013      303.82201    
     26500  -29639.815      4697.4635      92975.254     -127442.23      4827.1563      296.83588    
     27000  -29642.42       4730.7283      92959.511     -127451.48      4849.5487      298.9379     
     27500  -29924.924      4774.941       92556.947     -127448.51      4966.6374      301.73173    
     28000  -29765.916      4778.0897      92776.858     -127447.81      4905.0321      301.9307     
     28500  -29786.428      4857.8108      92843.549     -127445.29      4815.3117      306.96833    
     29000  -29833.239      4729.5786      92615.243     -127443.32      4994.8344      298.86525    
     29500  -29822.052      4637.3804      92615.699     -127449.87      5012.1187      293.03918    
     30000  -29799.433      4675.1512      92713.395     -127439.86      4927.0336      295.42594    
     30500  -29771.138      4745.2647      92770.767     -127436.55      4894.6438      299.85646    
     31000  -29733.203      4783.971       92925.72      -127433.09      4774.1696      302.30234    
     31500  -29711.731      4748.4764      92845.733     -127442.61      4885.1417      300.05941    
     32000  -29821.372      4781.1937      92834.479     -127444.74      4788.8902      302.12684    
     32500  -29743.088      4783.6384      92806.16      -127440.3       4891.0515      302.28133    
     33000  -29789.338      4720.4862      92762.342     -127434.26      4882.5763      298.2907     
     33500  -29819.009      4682.0002      92827.206     -127445.83      4799.6166      295.85874    
     34000  -29736.204      4774.6002      92934.943     -127438.19      4767.0383      301.71019    
     34500  -29815.46       4810.0166      92724.995     -127435.82      4895.3645      303.94818    
     35000  -29829.266      4594.555       92744.963     -127448.52      4874.2901      290.33302    
     35500  -29752.782      4723.9773      92829.46      -127445.81      4863.5715      298.5113     
     36000  -29693.902      4723.5694      92796.639     -127436         4945.4559      298.48553    
     36500  -29699.781      4799.5438      92855.954     -127434.63      4878.8968      303.2864     
     37000  -29754.904      4788.7925      92788.45      -127454.68      4911.3266      302.60701    
     37500  -29782.013      4722.1247      92570.079     -127440.91      5088.8221      298.39423    
     38000  -29834.553      4648.7234      92693.724     -127435.33      4907.0512      293.75595    
     38500  -29829.023      4751.8201      92570.319     -127452.6       5053.2572      300.2707     
     39000  -29750.208      4683.3859      92628.422     -127447.64      5069.0066      295.9463     
     39500  -29905.667      4734.0829      92512.024     -127437.83      5020.1437      299.14988    
     40000  -29723.692      4758.7624      92954.38      -127447.36      4769.2846      300.70939    
     40500  -29788.437      4863.9652      92867.236     -127450.11      4794.438       307.35723    
     41000  -29812.345      4868.6108      92754.955     -127450.74      4883.4414      307.65079    
     41500  -29810.107      4764.0737      92578.068     -127441.81      5053.6335      301.04502    
     42000  -29787.326      4636.1495      92774.219     -127446.9       4885.3538      292.9614     
     42500  -29729.312      4856.2629      92760.956     -127442.26      4951.9872      306.87051    
     43000  -29781.439      4745.2619      92796.485     -127442.17      4864.2426      299.85629    
     43500  -29840.14       4714.3485      92692.801     -127447.93      4914.9858      297.90285    
     44000  -29786.428      4785.4619      92580.95      -127444.54      5077.1621      302.39655    
     44500  -29822.597      4790.4134      92687.842     -127448.15      4937.711       302.70944    
     45000  -29870.651      4737.6288      92794.608     -127440.66      4775.397       299.37395    
     45500  -29785.992      4799.5725      92646.666     -127446.18      5013.5203      303.28821    
     46000  -29702.405      4699.0986      92985.955     -127436.72      4748.361       296.9392     
     46500  -29817.076      4808.3127      92793.231     -127446.79      4836.4881      303.84051    
     47000  -29810.472      4722.9567      92670.267     -127438.58      4957.8435      298.44681    
     47500  -29618.949      4803.2167      92961.235     -127439.09      4858.9024      303.51849    
     48000  -29780.131      4769.7203      92714.953     -127443.1       4948.0196      301.40183    
     48500  -29740.655      4759.3453      92936.345     -127439.86      4762.8653      300.74623    
     49000  -29982.225      4805.6428      92627.684     -127444.95      4835.0397      303.6718     
     49500  -29757.007      4723.9122      92815.416     -127447.77      4875.3473      298.50719    
     50000  -29815.959      4754.5566      92614.497     -127444.46      5014.0003      300.44363    
     50500  -29819.201      4736.2918      92723.72      -127450.23      4907.3071      299.28946    
     51000  -29727.553      4749.918       92813.649     -127444.93      4903.731       300.15051    
     51500  -29748.718      4731.1633      92768.559     -127440.24      4922.9628      298.96539    
     52000  -29744.547      4755.4031      92858.316     -127441.42      4838.5602      300.49711    
     52500  -29935.401      4713.7656      92561.149     -127444.02      4947.4725      297.86602    
     53000  -29956.537      4761.7288      92482.855     -127444.67      5005.2801      300.89684    
     53500  -29779.344      4790.8512      92758.424     -127449.82      4912.055       302.73711    
     54000  -29807.973      4710.0089      92750.945     -127449.29      4890.3663      297.62863    
     54500  -29916.327      4756.6671      92611.688     -127450.52      4922.5012      300.57699    
     55000  -29862.904      4896.8439      92693.201     -127450.73      4894.6294      309.43485    
     55500  -29804.12       4730.096       92741.801     -127440.9       4894.9835      298.89795    
     56000  -29829.547      4710.9862      92701.618     -127433.67      4902.5043      297.69038    
     56500  -29800.533      4828.8811      92778.684     -127437.83      4858.6098      305.14024    
     57000  -29810.837      4827.5032      92766.494     -127452.45      4875.1194      305.05317    
     57500  -29829.832      4706.2222      92706.709     -127441.53      4904.9852      297.38934    
     58000  -29892.729      4766.2659      92592.515     -127440.27      4955.0237      301.18355    
     58500  -29698.88       4662.5381      92889.778     -127436.67      4848.0077      294.62892    
     59000  -29798.782      4764.3918      92522.85      -127440.64      5119.0072      301.06512    
     59500  -29745.323      4825.714       92845.787     -127445.3       4854.1894      304.94011    
     60000  -29757.546      4768.5283      92699.311     -127439.67      4982.8139      301.32651    
     60500  -29966.378      4818.0853      92463.15      -127444.01      5014.4798      304.45805    
     61000  -29872.089      4758.7844      92551.828     -127449.97      5026.0532      300.71079    
     61500  -30008.826      4750.0752      92457.275     -127446.41      4980.3052      300.16045    
     62000  -29797.224      4749.2717      92815.395     -127441.88      4829.2607      300.10967    
     62500  -29719.639      4731.8348      92961.023     -127440.02      4759.354       299.00782    
     63000  -29854.638      4805.5618      92567.162     -127435.02      5013.2198      303.66668    
     63500  -29953.616      4785.5056      92411.366     -127439.64      5074.6593      302.39931    
     64000  -29947.868      4768.8934      92481.596     -127449.71      5020.2471      301.34958    
     64500  -29677.116      4763.9369      92926.687     -127443.44      4839.6338      301.03637    
     65000  -29667.025      4772.9382      92918.284     -127446.3       4860.9868      301.60517    
     65500  -29849.892      4759.557       92666.189     -127443.93      4927.8448      300.7596     
     66000  -29908.455      4736.9192      92688.937     -127441.57      4844.1804      299.3291     
     66500  -29738.829      4810.0199      92852.587     -127442.52      4851.1044      303.94839    
     67000  -29656.919      4746.8406      93002.857     -127444.01      4784.2313      299.95605    
     67500  -29711.924      4766.1733      92817.255     -127452.16      4922.982       301.1777     
     68000  -29703.97       4725.4206      92766.832     -127438.52      4967.7176      298.6025     
     68500  -29789.21       4742.6757      92666.975     -127436.72      4980.5322      299.69287    
     69000  -29792.554      4700.6385      92698.781     -127445.11      4953.7723      297.03651    
     69500  -29787.405      4739.0681      92754.581     -127456.24      4914.2506      299.4649     
     70000  -29796.159      4777.0621      92830.34      -127443.13      4816.6277      301.86576    
     70500  -29777.421      4638.1552      92820.97      -127440.3       4841.9104      293.08815    
     71000  -29742.518      4769.6301      92992.444     -127439.38      4704.4229      301.39613    
     71500  -29675.632      4752.8466      92906.193     -127441.59      4859.7638      300.33557    
     72000  -29839.615      4799.7009      92790.088     -127442.24      4812.5372      303.29632    
     72500  -29805.524      4781.7759      92895.448     -127436.07      4735.0987      302.16363    
     73000  -29716.044      4737.2576      92926.982     -127446.77      4803.7402      299.35049    
     73500  -29869.03       4765.7889      92623.464     -127447.79      4955.2998      301.1534     
     74000  -29749.401      4811.0652      92678.084     -127422.73      4995.2433      304.01444    
     74500  -29636.76       4678.3775      92884.739     -127448.18      4926.686       295.62982    
     75000  -29764.087      4727.2929      92827.47      -127434.31      4842.7543      298.72081    
     75500  -29752.136      4761.5307      92790.457     -127449.84      4907.2431      300.88433    
     76000  -29606.894      4795.0339      92967.482     -127438.35      4863.9782      303.00141    
     76500  -29802.562      4695.4997      92842.948     -127442.21      4796.6959      296.71178    
     77000  -29750.3        4769.8212      92779.562     -127448.19      4918.3288      301.40821    
     77500  -29733.436      4798.0608      92940.428     -127443.36      4769.5003      303.19269    
     78000  -29859.277      4656.5745      92725.23      -127442.06      4857.5528      294.25207    
     78500  -29867.774      4750.8979      92652.831     -127445.18      4924.58        300.21243    
     79000  -29873.962      4760.2011      92567.662     -127445.33      5003.7028      300.8003     
     79500  -29721.501      4734.6911      92836.288     -127442.7       4884.9068      299.18831    
     80000  -29812.831      4637.0582      92698.013     -127436.84      4925.9939      293.01882    
     80500  -29918.023      4797.8948      92551.446     -127443.74      4974.2747      303.1822     
     81000  -29794.452      4858.1999      92837.829     -127446.68      4814.3974      306.99292    
     81500  -29756.094      4744.4137      92734.778     -127440.85      4949.9798      299.80269    
     82000  -29800.844      4768.2732      92825.667     -127447.53      4821.0164      301.31039    
     82500  -29844.538      4728.1939      92760.932     -127445.25      4839.7778      298.77775    
     83000  -29683.16       4820.8315      92800.962     -127442.16      4958.0411      304.63158    
     83500  -29726.515      4740.4829      92710.871     -127447.15      5009.7642      299.5543     
     84000  -29833.939      4703.5744      92768.659     -127438.84      4836.2386      297.22203    
     84500  -29871.418      4739.5604      92852.017     -127439.47      4716.0337      299.49601    
     85000  -29898.885      4778.8134      92681.591     -127448.16      4867.6839      301.97643    
     85500  -29692.412      4733.0261      92847.927     -127443.21      4902.8751      299.0831     
     86000  -29830.476      4666.4763      92662.932     -127446.85      4953.4393      294.87777    
     86500  -29840.147      4727.6133      92671.146     -127439.14      4927.8439      298.74106    
     87000  -29749.293      4736.2042      92617.04      -127443.69      5077.3555      299.28392    
     87500  -29785.771      4733.3306      92659.493     -127444.12      4998.8615      299.10234    
     88000  -29715.065      4847.058       92896.276     -127443.3       4831.9546      306.28885    
     88500  -29783.666      4804.047       92700.855     -127442.23      4957.7121      303.57096    
     89000  -29795.282      4819.7993      92672.035     -127441.25      4973.9375      304.56636    
     89500  -29701.456      4761.0808      92940.143     -127443.13      4801.5357      300.8559     
     90000  -29818.028      4804.0463      92882.388     -127439.22      4738.8013      303.57091    
     90500  -29769.19       4750.7496      92757.617     -127441.67      4914.8644      300.20306    
     91000  -29713.439      4788.0304      92951.599     -127442.67      4777.63        302.55886    
     91500  -29832.766      4734.5088      92751.556     -127444.93      4860.6102      299.17679    
     92000  -29769.375      4646.9649      92838.681     -127444.87      4836.8183      293.64483    
     92500  -29818.221      4651.447       92881.136     -127447.87      4748.5152      293.92806    
     93000  -29823.816      4814.0052      92727.114     -127449.38      4898.4508      304.20022    
     93500  -29685.983      4897.112       92849.914     -127440.45      4904.5523      309.4518     
     94000  -29854.3        4710.6528      92896.747     -127441.32      4690.2762      297.66932    
     94500  -29756.085      4715.8878      92724.468     -127445.94      4965.3889      298.00012    
     95000  -29767.553      4750.0116      92799.342     -127441.75      4874.8598      300.15642    
     95500  -29785.604      4635.9459      92752.257     -127438.89      4901.025       292.94853    
     96000  -29894.951      4723.0844      92699.043     -127433.19      4839.1951      298.45488    
     96500  -29761.779      4820.2397      92868.303     -127446.78      4816.6992      304.59419    
     97000  -29854.782      4793.2991      92658.875     -127434.71      4921.0573      302.89179    
     97500  -29756.394      4719.5982      92613.201     -127440.58      5070.9858      298.23458    
     98000  -29830.224      4715.026       92508.113     -127444.8       5106.4646      297.94566    
     98500  -29731.469      4759.3596      92911.983     -127438.37      4794.9136      300.74713    
     99000  -29744.747      4741.2565      92824.33      -127450.04      4880.961       299.60319    
     99500  -29718.121      4687.8644      92921.979     -127447.48      4807.3759      296.2293     
    100000  -29653.56       4678.2311      92925.795     -127445.85      4866.4965      295.62057    
    100500  -29698.481      4698.4805      92766.767     -127445.58      4980.3314      296.90014    
    101000  -29642.614      4806.5015      92938.787     -127444.14      4862.744       303.72606    
    101500  -29767.546      4769.5086      92706.693     -127439.73      4965.4947      301.38845    
    102000  -29706.866      4701.4624      92856.877     -127438.39      4874.6459      297.08857    
    102500  -29626.003      4780.9822      93014.458     -127435.03      4794.5706      302.11348    
    103000  -29703.162      4744.5525      92900.291     -127444.43      4840.979       299.81146    
    103500  -29631.929      4634.4087      92980.624     -127441.02      4828.4649      292.8514     
    104000  -29653.989      4708.5762      92792.997     -127443.15      4996.1619      297.5381     
    104500  -29683.26       4768.5418      93001.25      -127440.95      4756.442       301.32736    
    105000  -29789.532      4778.2957      92653.72      -127441.68      4998.427       301.94372    
    105500  -29878.625      4783.2499      92609.248     -127449.59      4961.7139      302.25678    
    106000  -29716.64       4804.6033      92797.101     -127446.1       4932.3605      303.60611    
    106500  -29821.022      4784.5955      92659.011     -127435.73      4955.6979      302.3418     
    107000  -29764.26       4779.7199      92674.784     -127442.8       5003.757       302.03371    
    107500  -29861.775      4789.3182      92770.992     -127444.29      4811.5212      302.64024    
    108000  -29695.154      4764.669       92832.244     -127443.96      4916.5579      301.08264    
    108500  -29698.59       4865.699       92860.4       -127439.97      4880.9816      307.46679    
    109000  -29824.547      4737.7697      92739.83      -127430.68      4866.3075      299.38285    
    109500  -29714.942      4781.3728      92926.21      -127439.31      4798.1575      302.13816    
    110000  -29885.007      4734.4075      92481.924     -127439.57      5072.6392      299.17039    
    110500  -29738.839      4724.568       92765.928     -127445.39      4940.6214      298.54863    
    111000  -29765.935      4693.9259      92779.104     -127448.48      4903.4441      296.61233    
    111500  -29661.738      4722.317       92831.205     -127437.19      4944.2498      298.40638    
    112000  -29758.313      4818.7686      92721.1       -127432.41      4952.9934      304.50123    
    112500  -29701.646      4693.934       92857.989     -127438.28      4878.6424      296.61284    
    113000  -29807.606      4798.5913      92683.386     -127443.23      4952.2395      303.22621    
    113500  -29782.89       4735.9269      92788.714     -127441.26      4869.6585      299.2664     
    114000  -29778.3        4743.8264      92751.785     -127444.32      4914.2347      299.76558    
    114500  -29689.836      4688.8387      92874.606     -127443.34      4878.9008      296.29087    
    115000  -29854.24       4758.7913      92820.271     -127442.07      4767.5549      300.71122    
    115500  -29768.594      4755.9745      92782.156     -127436.1       4885.3484      300.53322    
    116000  -29671.044      4799.3873      92958.237     -127444.85      4815.5728      303.27651    
    116500  -29773.049      4708.4056      92871.221     -127447.6       4803.3276      297.52731    
    117000  -29846.943      4637.3115      92713.232     -127447.29      4887.1112      293.03483    
    117500  -29630.239      4736.1527      92888.326     -127450.78      4932.2124      299.28067    
    118000  -29721.246      4713.9121      92961.965     -127444.45      4761.2407      297.87527    
    118500  -29721.832      4677.7577      92730.943     -127439.29      4986.5196      295.59065    
    119000  -29858.818      4740.7089      92549.759     -127443.6       5035.0227      299.56858    
    119500  -29791.022      4789.3161      92622.421     -127447.06      5033.6154      302.6401     
    120000  -29801.76       4779.613       92781.307     -127443.05      4859.9785      302.02696    
    120500  -29869.75       4653.8378      92583.678     -127438.14      4984.7106      294.07913    
    121000  -29735.799      4664.4822      92841.111     -127438.33      4861.4237      294.75176    
    121500  -29846.976      4739.85        92673.594     -127444.85      4924.2816      299.51431    
    122000  -29717.374      4764.3853      92942.659     -127443.2       4783.1636      301.06471    
    122500  -29800.867      4793.8266      92734.097     -127442.49      4907.5214      302.92512    
    123000  -29880.111      4659.8576      92667.574     -127442.28      4894.5941      294.45953    
    123500  -29766.493      4822.3212      92729.371     -127440.24      4944.3767      304.72572    
    124000  -29745.066      4732.8422      92825.059     -127442.74      4872.6125      299.07148    
    124500  -29903.162      4770.5767      92585.691     -127437.91      4949.0555      301.45595    
    125000  -29813.099      4708.6883      92729.765     -127443.55      4900.6904      297.54518    
    125500  -29814.36       4749.2556      92600.863     -127442.58      5027.3539      300.10865    
    126000  -29751.773      4760.9068      92839.001     -127442.83      4852.0519      300.8449     
    126500  -29721.907      4688.9235      92910.933     -127443.96      4811.1235      296.29623    
    127000  -29656.522      4704.8435      92830.492     -127439.3       4952.2877      297.30222    
    127500  -29882.549      4788.1502      92630.129     -127442.76      4930.0871      302.56643    
    128000  -29750.192      4693.1685      92724.078     -127444.08      4969.8093      296.56447    
    128500  -29721.089      4719.1214      92841.895     -127442.25      4879.2681      298.20445    
    129000  -29757.836      4619.6764      92925.924     -127439.32      4755.5643      291.92045    
    129500  -29910.267      4719.2686      92592.058     -127451.73      4949.4081      298.21375    
    130000  -29811.776      4778.4571      92799.227     -127448.21      4837.2092      301.95392    
    130500  -29664.199      4709.0433      93019.435     -127447.55      4763.9203      297.56761    
    131000  -29723.964      4743.6117      92865.017     -127436.29      4847.3073      299.75201    
    131500  -29765.419      4737.7082      92854.164     -127443.65      4824.067       299.37896    
    132000  -29685.124      4717.3741      92831.8       -127442.37      4925.445       298.09404    
    132500  -29681.607      4770.7176      92894.791     -127428.53      4852.1366      301.46485    
    133000  -29798.235      4687.6706      92761.509     -127441.71      4881.9654      296.21705    
    133500  -29843.92       4736.3561      92750.473     -127447.55      4853.1563      299.29352    
    134000  -29791.51       4758.6449      92738.276     -127442.57      4912.7813      300.70197    
    134500  -29775.964      4713.5727      92751.055     -127439.69      4912.6721      297.85382    
    135000  -29674.142      4758.2398      93000.574     -127441.62      4766.9062      300.67637    
    135500  -29860.924      4773.174       92622.847     -127438.64      4954.8637      301.62007    
    136000  -29562.657      4818.613       93059.577     -127443.92      4821.6867      304.49139    
    136500  -29717.787      4772.8055      93034.626     -127438.18      4685.7712      301.59678    
    137000  -29777.195      4768.2195      92863.499     -127446.61      4805.9146      301.30699    
    137500  -29818.299      4706.0256      92723.119     -127431.31      4889.8906      297.37692    
    138000  -29749.977      4751.9287      92757.614     -127440.3       4932.7073      300.27757    
    138500  -29734.544      4768.691       92733.794     -127446.06      4977.7269      301.33679    
    139000  -29706.76       4812.5136      92937.115     -127444.95      4801.0755      304.10597    
    139500  -29827.527      4695.4197      92765.354     -127443.7       4850.8234      296.70672    
    140000  -29701.519      4729.7313      92871.892     -127447.84      4874.431       298.8749     
    140500  -29818.047      4736.0351      92688.49      -127444.45      4937.9178      299.27324    
    141000  -29858.55       4730.7439      92754.674     -127440.16      4826.9316      298.93888    
    141500  -29746.314      4741.5347      92756.656     -127436.91      4933.9419      299.62076    
    142000  -29903.297      4806.1503      92558.916     -127442.76      4980.5445      303.70387    
    142500  -30000.853      4752.9905      92485.737     -127448.85      4962.2582      300.34467    
    143000  -29819.334      4801.6152      92545.554     -127437.84      5072.9562      303.41729    
    143500  -29892.571      4877.3892      92642.183     -127442.34      4907.5889      308.2055     
    144000  -29798.307      4719.5294      92686.041     -127441.6       4957.2515      298.23023    
    144500  -29752.853      4715.9582      92761.079     -127439.69      4925.7622      298.00457    
    145000  -29821.484      4700.9958      92759.709     -127437.32      4856.1258      297.05908    
    145500  -29738.149      4737.9925      92932.546     -127449.02      4778.3257      299.39693    
    146000  -29724.352      4739.4577      92806.427     -127442.25      4911.4712      299.48952    
    146500  -29806.308      4734.0766      92681.386     -127435.33      4947.6387      299.14948    
    147000  -29710.061      4788.881       92989.464     -127439.16      4739.6381      302.61261    
    147500  -29681.028      4735.2247      92971.297     -127444.57      4792.2443      299.22203    
    148000  -29794.355      4766.3372      92673.273     -127448.38      4980.7482      301.18805    
    148500  -29851.184      4732.2         92614.092     -127448.39      4983.114       299.0309     
    149000  -29825.864      4702.7018      92645.17      -127436.6       4965.5658      297.16689    
    149500  -29688.501      4695.4054      92857.649     -127438.43      4892.2832      296.70582    
    150000  -29775.673      4771.6124      92843.811     -127444.91      4825.4282      301.52139    
    150500  -29896.066      4715.9982      92688.601     -127442.71      4858.0437      298.00709    
    151000  -29845.487      4861.9185      92583.78      -127442.8       5013.5286      307.2279     
    151500  -29844.393      4825.4259      92648.462     -127439.73      4946.8704      304.9219     
    152000  -29807.073      4701.0069      92805.956     -127442.49      4829.4624      297.05979    
    152500  -29877.875      4694.6753      92595.811     -127447.54      4973.8558      296.65968    
    153000  -29831.814      4743.9652      92764.852     -127439.4       4842.7346      299.77435    
    153500  -29939.971      4837.7494      92499.735     -127442.79      5003.0841      305.70064    
    154000  -29687.781      4769.504       92822.141     -127443.69      4933.7709      301.38816    
    154500  -29855.377      4691.574       92711.821     -127445.62      4878.4247      296.46372    
    155000  -29865.679      4676.6047      92672.59      -127438.55      4900.2819      295.51779    
    155500  -29728.146      4744.2545      92854.839     -127446.51      4863.5213      299.79263    
    156000  -29832.273      4712.0644      92783.227     -127441.61      4826.113       297.75852    
    156500  -29876.621      4748.9244      92692.461     -127448.28      4879.2025      300.08773    
    157000  -29828.34       4705.6357      92726.524     -127448.45      4893.5846      297.35228    
    157500  -29821.499      4799.6564      92777.269     -127446.07      4847.3062      303.29351    
    158000  -29709.42       4810.0843      92879.642     -127447.69      4858.6259      303.95246    
    158500  -29666.01       4796.9632      92915.986     -127444.19      4862.1924      303.12333    
    159000  -29575.638      4733.8986      92877.514     -127442.52      4989.3678      299.13823    
    159500  -29657.348      4657.1669      93008.783     -127446.64      4780.5063      294.28951    
    160000  -29711.671      4763.5064      92889.002     -127443.8       4843.1271      301.00917    
    160500  -29653.332      4798.0982      92957.645     -127447.68      4836.6978      303.19505    
    161000  -29792.707      4730.3454      92791.83      -127434.95      4850.4168      298.9137     
    161500  -29735.255      4657.0098      92867.131     -127432.01      4829.6243      294.27958    
    162000  -29790.876      4667.6606      92780.488     -127445.77      4874.4055      294.95261    
    162500  -29763.752      4819.4434      92715.128     -127439.65      4960.7667      304.54387    
    163000  -29924.567      4781.9247      92588.155     -127449.48      4936.7579      302.17303    
    163500  -29660.862      4806.7807      92885.411     -127436.5       4890.2275      303.7437     
    164000  -29652.218      4875.2765      92932.974     -127442.72      4857.5314      308.072      
    164500  -29953.643      4772.8383      92587.978     -127442         4900.3798      301.59886    
    165000  -29808.443      4797.3821      92789.023     -127447.95      4850.4799      303.1498     
    165500  -29835.492      4680.8382      92597.228     -127438.07      5005.351       295.78531    
    166000  -29862.561      4710.8017      92703.674     -127442.73      4876.4975      297.67873    
    166500  -29760.519      4803.8466      92765.737     -127443.86      4917.6086      303.55829    
    167000  -29816.673      4680.0478      92731.01      -127444.24      4896.557       295.73537    
    167500  -29781.027      4668.2418      92728.14      -127449.14      4939.973       294.98934    
    168000  -29893.528      4721.2296      92634.397     -127437.63      4909.7085      298.33767    
    168500  -29669.679      4704.4846      92830.748     -127448.58      4948.1515      297.27955    
    169000  -29982.489      4816.9696      92618.935     -127452.82      4851.3984      304.38754    
    169500  -29800.697      4820.7272      92714.681     -127446.51      4931.1299      304.62499    
    170000  -29782.931      4775.5868      92635.537     -127438.97      5020.4988      301.77254    
    170500  -29672.63       4656.1154      92957.335     -127450.03      4820.0664      294.22306    
    171000  -29876.183      4745.9971      92671.853     -127441.25      4893.2127      299.90275    
    171500  -29713.392      4776.5736      92824.923     -127444.6       4906.2805      301.83489    
    172000  -29775.058      4797.8574      92796.252     -127444.52      4873.2108      303.17983    
    172500  -29683.978      4801.6233      92744.052     -127443.89      5015.8619      303.4178     
    173000  -29704.192      4766.1656      92915.034     -127447.39      4828.1661      301.17721    
    173500  -29739.986      4761.1374      92910.441     -127439.17      4788.7398      300.85947    
    174000  -29618.96       4773.4328      92829.486     -127448.38      4999.9381      301.63643    
    174500  -29706.569      4720.1547      92930.136     -127435.53      4798.8228      298.26975    
    175000  -29696.503      4678.0736      92859.972     -127435.6       4879.121       295.61062    
    175500  -29604.942      4698.6297      92982.117     -127436.81      4849.7493      296.90956    
    176000  -29886.053      4722.0638      92585.426     -127434.62      4963.1405      298.39038    
    176500  -29709.195      4730.4814      92888.141     -127438.6       4841.2643      298.9223     
    177000  -29835.002      4754.6453      92711.291     -127453.04      4906.7429      300.44923    
    177500  -29679.78       4771.5978      92883.556     -127437.67      4874.3368      301.52047    
    178000  -29898.151      4625.202       92586.956     -127446.09      4960.9854      292.26962    
    178500  -29771.097      4829.3267      92818.107     -127436.59      4847.3877      305.1684     
    179000  -29810.475      4820.4986      92727.073     -127438.83      4901.2785      304.61055    
    179500  -29820.711      4749.7109      92731.225     -127438.56      4886.6256      300.13743    
    180000  -29874.934      4701.831       92670.573     -127440.86      4895.3552      297.11186    
    180500  -29897.74       4776.0678      92592.655     -127444.08      4953.6858      301.80293    
    181000  -29875.83       4737.1749      92500.672     -127436.24      5059.7381      299.34526    
    181500  -29673.796      4761.168       92979.29      -127444.97      4791.884       300.86141    
    182000  -29873.929      4735.6048      92467.866     -127443.25      5101.4523      299.24605    
    182500  -29882.706      4717.7569      92653.684     -127442.03      4905.642       298.11823    
    183000  -29802.316      4749.4781      92797.768     -127434.18      4834.0972      300.12271    
    183500  -29808.473      4777.4163      92710.319     -127443.88      4925.0879      301.88814    
    184000  -29708.544      4825.8495      92985.347     -127442.92      4749.0326      304.94867    
    184500  -29797.283      4729.4379      92660.855     -127436.29      4978.1471      298.85636    
    185000  -29696.177      4775.1617      92931.154     -127438.95      4811.6146      301.74567    
    185500  -29796.659      4746.728       92741.213     -127437.43      4899.5559      299.94893    
    186000  -29821.323      4710.607       92780.727     -127436.53      4834.4815      297.66642    
    186500  -29749.951      4800.3104      92863.74      -127444.31      4830.6148      303.33484    
    187000  -29835.916      4728.4564      92618.804     -127442.5       4987.7824      298.79433    
    187500  -29877.652      4700.1007      92651.738     -127446.7       4917.3073      297.00252    
    188000  -29854.366      4738.0323      92630.447     -127441.11      4956.2983      299.39944    
    188500  -29748.096      4777.1556      92815.261     -127445.09      4881.7363      301.87167    
    189000  -29790.499      4685.5091      92604.077     -127442.57      5047.9959      296.08047    
    189500  -29770.874      4691.5334      92643.751     -127435.42      5020.792       296.46115    
    190000  -29673.726      4685.0839      92978.078     -127437.37      4785.5701      296.0536     
    190500  -29872.129      4714.6633      92633.982     -127443.79      4937.6762      297.92274    
    191000  -29794.395      4725.4749      92681.781     -127445.32      4969.1456      298.60594    
    191500  -29729.57       4799.0142      92955.372     -127437.28      4752.3394      303.25293    
    192000  -29936.443      4677.4162      92730.505     -127445.22      4778.2718      295.56907    
    192500  -29842.531      4785.3802      92599.391     -127447.55      5005.6248      302.39139    
    193000  -29799.757      4762.3333      92852.565     -127447.92      4795.6027      300.93504    
    193500  -29772.732      4672.3458      92801.566     -127445.48      4871.186       295.24867    
    194000  -29841.445      4737.629       92799.158     -127448.14      4807.5337      299.37396    
    194500  -29783.366      4766.0733      92876.21      -127431.49      4771.9118      301.17137    
    195000  -29874.706      4699.4947      92476.135     -127444.74      5093.895       296.96422    
    195500  -29736.162      4685.1964      92771.047     -127445.05      4937.8402      296.06071    
    196000  -29763.138      4648.3128      92874.393     -127438.79      4801.258       293.73001    
    196500  -29704.242      4767.819       92922.089     -127447.4       4821.0738      301.28169    
    197000  -29792.05       4754.2345      92642.183     -127445.39      5011.1556      300.42327    
    197500  -29704.036      4778.182       92825.292     -127442.74      4913.411       301.93653    
    198000  -29726.659      4789.9813      92827.328     -127437.86      4883.8705      302.68214    
    198500  -29769.089      4698.8716      92903.118     -127441.74      4769.5328      296.92485    
    199000  -29716.744      4795.0215      93006.348     -127441.22      4718.1264      303.00063    
    199500  -29813.154      4699.2583      92758.561     -127443.13      4871.4149      296.94929    
    200000  -29782.461      4701.6814      92841.875     -127454.6       4830.2632      297.10241    
    200500  -29883.247      4697.6786      92650.658     -127447.8       4913.8941      296.84947    
    201000  -29733.933      4654.8657      92942.43      -127447.6       4771.2345      294.14409    
    201500  -29721.364      4770.299       92802.956     -127438.14      4913.8208      301.4384     
    202000  -29754.942      4800.1806      92866.963     -127443.88      4821.9749      303.32664    
    202500  -29834.815      4752.2211      92452.282     -127440.53      5153.4334      300.29605    
    203000  -30010.551      4756.1097      92492.697     -127446.98      4943.7319      300.54177    
    203500  -29913.838      4712.0021      92638.634     -127448.79      4896.3159      297.75458    
    204000  -29909.639      4764.2785      92615.977     -127443.58      4917.9641      301.05796    
    204500  -29798.4        4779.073       92643.366     -127442.21      5000.4416      301.99284    
    205000  -29906.557      4730.4309      92649.848     -127442.66      4886.259       298.9191     
    205500  -29833.204      4785.8424      92641.951     -127443.08      4967.9289      302.4206     
    206000  -29762.634      4757.5235      92745.218     -127436.18      4928.3289      300.63111    
    206500  -29844.799      4784.5945      92704.618     -127449.38      4899.9641      302.34174    
    207000  -29816.168      4708.3531      92600.506     -127437.78      5021.1083      297.524      
    207500  -30018.879      4681.7744      92435.175     -127448.07      4994.0125      295.84447    
    208000  -29723.9        4688.6216      92764.041     -127434.16      4946.2157      296.27715    
    208500  -29843.48       4728.7635      92717.341     -127439.3       4878.4824      298.81375    
    209000  -29902.618      4640.2631      92624.73      -127442.45      4915.1         293.22135    
    209500  -29759.305      4699.3352      92829.746     -127436.97      4847.9181      296.95415    
    210000  -29813.646      4725.1494      92626.548     -127434         4993.8032      298.58537    
    210500  -29991.776      4777.1121      92556.106     -127430.97      4883.0863      301.86892    
    211000  -29654.245      4728.7737      93077.443     -127436.08      4704.3886      298.81439    
    211500  -29713.933      4739.2479      92877.79      -127437.76      4846.0356      299.47626    
    212000  -29759.464      4715.4195      92884.381     -127438.74      4794.898       297.97053    
    212500  -29762.819      4832.9983      92819.131     -127434.04      4852.0894      305.40041    
    213000  -29896.043      4758.0318      92699.863     -127439.86      4843.9557      300.66323    
    213500  -29788.572      4769.8114      92758.805     -127451.14      4903.7676      301.40759    
    214000  -29799.969      4754.1401      92880.181     -127442.32      4762.1702      300.4173     
    214500  -29823.323      4776.1145      92767.535     -127440.66      4849.7975      301.80588    
    215000  -29716.416      4728.7048      92924.224     -127437.1       4796.4629      298.81004    
    215500  -29851.999      4704.726       92652.415     -127448.82      4944.4082      297.29479    
    216000  -29741.067      4773.1922      92756.511     -127439.41      4941.8309      301.62122    
    216500  -29871.192      4828.8725      92662.635     -127443.42      4909.5951      305.1397     
    217000  -29742.842      4737.85        92721.291     -127436.61      4972.4801      299.38793    
    217500  -29877.947      4800.1368      92790.905     -127439.89      4771.0431      303.32387    
    218000  -29804.114      4784.3846      92787.966     -127441.13      4849.0481      302.32848    
    218500  -29670.04       4657.0733      92957.611     -127440.21      4812.5564      294.28359    
    219000  -29732.281      4601.7854      92856.612     -127441.03      4852.1347      290.78991    
    219500  -29716.121      4665.3992      92774.354     -127442.89      4952.4178      294.80971    
    220000  -29923.282      4741.1347      92485.771     -127445.52      5036.4684      299.59549    
Loop time of 5524.08 on 30 procs for 200000 steps with 9401 atoms

Performance: 6.256 ns/day, 3.836 hours/ns, 36.205 timesteps/s, 340.364 katom-step/s
94.2% CPU use with 30 MPI tasks x 1 OpenMP threads

MPI task timing breakdown:
Section |  min time  |  avg time  |  max time  |%varavg| %total
---------------------------------------------------------------
Pair    | 519.6      | 1015.5     | 1422.3     | 805.1 | 18.38
Bond    | 0.14207    | 0.24044    | 0.33474    |   9.5 |  0.00
Kspace  | 1307.6     | 1716.1     | 2213.7     | 620.0 | 31.07
Neigh   | 398.61     | 400.14     | 403.32     |   6.3 |  7.24
Comm    | 148.11     | 164.47     | 176.5      |  59.7 |  2.98
Output  | 5.6754     | 7.5635     | 9.4127     |  40.7 |  0.14
Modify  | 2203.8     | 2211.9     | 2221.5     |  10.7 | 40.04
Other   |            | 8.199      |            |       |  0.15

Nlocal:        313.367 ave         363 max         276 min
Histogram: 4 9 4 1 0 2 1 2 1 6
Nghost:        7715.97 ave        9445 max        5993 min
Histogram: 12 0 0 0 0 0 0 12 0 6
Neighs:         213481 ave      268202 max      111016 min
Histogram: 3 3 0 0 0 0 4 11 5 4

Total # of neighbors = 6404440
Ave neighs/atom = 681.25093
Ave special neighs/atom = 1.6919477
Neighbor list builds = 19307
Dangerous builds = 13247
    #write_data structure.data
    undump alldump
    next l
    unfix conp2
    jump SELF loop_start
    variable l_tf equal ${l}/2
    variable l_tf equal 3/2
    # fix id group1 electrode/conp psi1 eta couple group2 psi2 write_inv
    # fix conp1 lower electrode/conp 0.0 5 couple upper 0.0 write_inv inv.out etypes 1*6 # Write call to not have to determine the matrix twice
    fix conp1 lower electrode/conp 0.0 2.925 couple upper 0.0# Write call to not have to determine the matrix twice
1440 atoms in group conp_group
    fix_modify conp1 tf 1 ${l_tf} ${d}
    fix_modify conp1 tf 1 1.5 ${d}
    fix_modify conp1 tf 1 1.5 6.81038626666667
    fix_modify conp1 tf 6 ${l_tf} ${d}
    fix_modify conp1 tf 6 1.5 ${d}
    fix_modify conp1 tf 6 1.5 6.81038626666667
    # fix conp1 lower electrode/conp 0.0 5 couple upper 0.0 read_inv inv.out # Write call to not have to determine the matrix twice

    # ======== equilibrate for ? ns ========
    reset_timestep 0
    thermo 50
    # dump equilxtc h2o xtc 50 equil.xtc
    run 500 # 1 ps, ~ correlation time of spce water
PPPM/electrode initialization ...
  using 12-bit tables for long-range coulomb (src/kspace.cpp:342)
  G vector (1/distance) = 0.23783323
  grid = 40 45 100
  stencil order = 5
  estimated absolute RMS force accuracy = 0.00036352521
  estimated relative force accuracy = 1.0947454e-06
  using double precision FFTW3
  3d grid and FFT values/proc = 45144 22200
Generated 15 of 15 mixed pair_coeff terms from arithmetic mixing rule
WARNING: Neighbor exclusions used with KSpace solver may give inconsistent Coulombic energies (src/neighbor.cpp:654)
Neighbor list info ...
  update: every = 1 steps, delay = 10 steps, check = yes
  max neighbors/atom: 2000, page size: 100000
  master list distance cutoff = 16
  ghost atom cutoff = 16
  binsize = 8, bins = 6 6 7
  2 neighbor lists, perpetual/occasional/extra = 2 0 0
  (1) pair lj/cut/coul/long, perpetual
      attributes: half, newton on
      pair build: half/bin/newton
      stencil: half/bin/3d
      bin: standard
  (2) fix electrode/conp, perpetual, copy from (1)
      attributes: half, newton on
      pair build: copy
      stencil: none
      bin: none
Per MPI rank memory allocation (min/avg/max) = 27.35 | 27.86 | 29.57 Mbytes
   Step         PotEng         KinEng         E_coul         E_long         E_vdwl      c_watertemp  
         0  -29907.243      4741.1347      92499.795     -127443.51      5036.4684      299.59549    
        50  -29864.76       4717.6464      92543.811     -127452.94      5044.3731      298.11124    
       100  -29812.241      4678.6026      92538.554     -127447.35      5096.5595      295.64404    
       150  -29854.37       4740.8447      92755.194     -127440.6       4831.0355      299.57716    
       200  -29888.334      4808.981       92644.883     -127446.89      4913.6698      303.88274    
       250  -29761.9        4723.6931      92832.088     -127449.92      4855.9343      298.49334    
       300  -29765.541      4787.0788      92749.421     -127441.94      4926.9735      302.49873    
       350  -29758.466      4843.0222      92763.173     -127445.4       4923.7595      306.03382    
       400  -29723.621      4826.0648      92785.042     -127445.71      4937.047       304.96228    
       450  -29649.606      4715.4387      92808.569     -127447.03      4988.8525      297.97174    
       500  -29865.875      4844.2345      92753.376     -127451.44      4832.1868      306.11043    
Loop time of 14.3492 on 30 procs for 500 steps with 9401 atoms

Performance: 6.021 ns/day, 3.986 hours/ns, 34.845 timesteps/s, 327.579 katom-step/s
94.3% CPU use with 30 MPI tasks x 1 OpenMP threads

MPI task timing breakdown:
Section |  min time  |  avg time  |  max time  |%varavg| %total
---------------------------------------------------------------
Pair    | 1.0909     | 2.6115     | 3.8327     |  42.8 | 18.20
Bond    | 0.00027871 | 0.0006414  | 0.00091592 |   0.0 |  0.00
Kspace  | 3.4131     | 4.6339     | 6.1565     |  32.2 | 32.29
Neigh   | 0.9637     | 0.96956    | 0.97705    |   0.4 |  6.76
Comm    | 0.35823    | 0.42184    | 0.47522    |   4.3 |  2.94
Output  | 0.0010517  | 0.001079   | 0.0014249  |   0.2 |  0.01
Modify  | 5.657      | 5.6904     | 5.7306     |   0.7 | 39.66
Other   |            | 0.02031    |            |       |  0.14

Nlocal:        313.367 ave         361 max         279 min
Histogram: 8 6 3 1 0 1 1 1 2 7
Nghost:        7668.97 ave        9396 max        5964 min
Histogram: 12 0 0 0 0 0 2 10 0 6
Neighs:         213268 ave      263672 max      112063 min
Histogram: 3 3 0 0 0 0 5 9 3 7

Total # of neighbors = 6398051
Ave neighs/atom = 680.57132
Ave special neighs/atom = 1.6919477
Neighbor list builds = 48
Dangerous builds = 32

    write_dump solvent xyz water_ions.xyz
    write_data equilibrated_structure.data
System init for write_data ...
PPPM/electrode initialization ...
  using 12-bit tables for long-range coulomb (src/kspace.cpp:342)
  G vector (1/distance) = 0.23783321
  grid = 40 45 100
  stencil order = 5
  estimated absolute RMS force accuracy = 0.00036352076
  estimated relative force accuracy = 1.094732e-06
  using double precision FFTW3
  3d grid and FFT values/proc = 45144 22200
Generated 15 of 15 mixed pair_coeff terms from arithmetic mixing rule
WARNING: Neighbor exclusions used with KSpace solver may give inconsistent Coulombic energies (src/neighbor.cpp:654)

    ## ======== production run ========


    reset_timestep 0
    # Dump to also show the changing charge of the walls
    dump alldump all custom 50 wallcharge_${l_tf}.lammpstrj id type x y z q
    dump alldump all custom 50 wallcharge_1.5.lammpstrj id type x y z q
    thermo 500 # frequency log file
    #
    variable doutx equal 50 # 0.1ps
    #
    #dump xtc all xtc ${doutx} traj.xtc
    run 20000
PPPM/electrode initialization ...
  using 12-bit tables for long-range coulomb (src/kspace.cpp:342)
  G vector (1/distance) = 0.23783321
  grid = 40 45 100
  stencil order = 5
  estimated absolute RMS force accuracy = 0.00036352076
  estimated relative force accuracy = 1.094732e-06
  using double precision FFTW3
  3d grid and FFT values/proc = 45144 22200
Generated 15 of 15 mixed pair_coeff terms from arithmetic mixing rule
WARNING: Neighbor exclusions used with KSpace solver may give inconsistent Coulombic energies (src/neighbor.cpp:654)
Per MPI rank memory allocation (min/avg/max) = 27.35 | 27.86 | 29.57 Mbytes
   Step         PotEng         KinEng         E_coul         E_long         E_vdwl      c_watertemp  
         0  -29865.875      4844.2345      92753.362     -127451.42      4832.1868      306.11043    
       500  -29723.902      4795.6399      92979.974     -127447.61      4743.731       303.03971    
      1000  -29716.509      4702.4691      92931.892     -127453.98      4805.5803      297.15218    
      1500  -29879.928      4734.2674      92472.397     -127451.26      5098.9305      299.16154    
      2000  -29794.792      4708.0466      92724.349     -127444.18      4925.0404      297.50463    
      2500  -29625.174      4853.0923      92809.403     -127449.77      5015.1889      306.67016    
      3000  -29739.371      4737.8259      92733.086     -127445.54      4973.0805      299.3864     
      3500  -29782.966      4642.1039      92946.205     -127447.16      4717.9884      293.33767    
      4000  -29837.538      4714.925       92733.156     -127452.01      4881.3148      297.93928    
      4500  -29798.162      4702.7132      92734.683     -127457.6       4924.7567      297.16761    
      5000  -29506.463      4728.2822      93205.103     -127450.55      4738.9827      298.78333    
      5500  -29776.304      4828.9873      92862.215     -127449.07      4810.5472      305.14695    
      6000  -29767.214      4723.0187      92813.969     -127454.72      4873.5406      298.45072    
      6500  -29778.225      4719.6218      92695.689     -127454.66      4980.7461      298.23607    
      7000  -29827.208      4669.203       93012.646     -127449.33      4609.4746      295.05007    
      7500  -29809.168      4741.2637      92731.144     -127451.27      4910.9596      299.60364    
      8000  -29809.394      4760.2305      92808.71      -127446.3       4828.1992      300.80217    
      8500  -29844.071      4683.1384      92671.999     -127456.88      4940.8066      295.93066    
      9000  -29851.228      4804.6254      92694.868     -127452.98      4906.886       303.6075     
      9500  -29824.466      4809.7503      92677.552     -127453.63      4951.6084      303.93136    
     10000  -29703.924      4756.3905      92812.943     -127453.33      4936.4607      300.55951    
     10500  -29840.229      4747.1019      92663.51      -127453.21      4949.4666      299.97256    
     11000  -29743.113      4771.5269      92931.466     -127451.81      4777.2361      301.51599    
     11500  -29773.533      4759.0719      92824.067     -127456.16      4858.5613      300.72895    
     12000  -29897.225      4751.2658      92555.597     -127451.41      4998.592       300.23568    
     12500  -29922.596      4712.6209      92751.639     -127450.44      4776.2054      297.79368    
     13000  -29885.203      4723.403       92591.871     -127456.36      4979.2822      298.47501    
     13500  -29831.488      4832.9845      92824.134     -127455.28      4799.6547      305.39954    
     14000  -29832.559      4775.9376      92828.776     -127445.32      4783.9853      301.7947     
     14500  -29773.229      4721.6586      92713.458     -127453.02      4966.3291      298.36478    
     15000  -29938.594      4810.3878      92674.429     -127454.06      4841.0402      303.97164    
     15500  -29891.861      4679.0042      92704.031     -127447.46      4851.5726      295.66942    
     16000  -29728.754      4700.8007      92827.188     -127447.49      4891.5487      297.04676    
     16500  -29942.402      4716.3693      92746.279     -127449.96      4761.2794      298.03055    
     17000  -29761.699      4778.9427      92892.248     -127453.71      4799.7658      301.9846     
     17500  -29756.287      4814.3981      92741.042     -127448.81      4951.483       304.22505    
     18000  -29759.996      4712.2355      92956.905     -127450.47      4733.5676      297.76933    
     18500  -29768.173      4654.7936      92668.663     -127453.94      5017.1079      294.13953    
     19000  -29784.753      4779.3762      92717.073     -127453.89      4952.0633      302.01199    
     19500  -29737.341      4747.0768      92947.654     -127445.6       4760.6104      299.97097    
     20000  -29617.263      4711.2778      93004.703     -127447.3       4825.3355      297.70881    
Loop time of 552.151 on 30 procs for 20000 steps with 9401 atoms

Performance: 6.259 ns/day, 3.834 hours/ns, 36.222 timesteps/s, 340.523 katom-step/s
94.1% CPU use with 30 MPI tasks x 1 OpenMP threads

MPI task timing breakdown:
Section |  min time  |  avg time  |  max time  |%varavg| %total
---------------------------------------------------------------
Pair    | 50.057     | 101.26     | 135.04     | 239.6 | 18.34
Bond    | 0.010326   | 0.02356    | 0.035129   |   4.1 |  0.00
Kspace  | 133.66     | 168.13     | 219.55     | 186.3 | 30.45
Neigh   | 38.577     | 38.853     | 39.162     |   2.4 |  7.04
Comm    | 14.313     | 16.875     | 19.046     |  25.6 |  3.06
Output  | 0.58164    | 0.78764    | 0.98922    |  13.7 |  0.14
Modify  | 224.08     | 225.38     | 226.78     |   3.9 | 40.82
Other   |            | 0.8436     |            |       |  0.15

Nlocal:        313.367 ave         357 max         276 min
Histogram: 6 5 5 0 2 0 1 0 5 6
Nghost:        7695.93 ave        9491 max        6045 min
Histogram: 12 0 0 0 0 0 11 1 0 6
Neighs:         213449 ave      257133 max      125674 min
Histogram: 4 2 0 0 0 0 1 12 5 6

Total # of neighbors = 6403476
Ave neighs/atom = 681.14839
Ave special neighs/atom = 1.6919477
Neighbor list builds = 1928
Dangerous builds = 1312
    unfix conp1
    fix conp2 lower electrode/conp 0.5 2.925 couple upper -0.5
1440 atoms in group conp_group
    fix_modify conp2 tf 1 ${l_tf} ${d}
    fix_modify conp2 tf 1 1.5 ${d}
    fix_modify conp2 tf 1 1.5 6.81038626666667
    fix_modify conp2 tf 6 ${l_tf} ${d}
    fix_modify conp2 tf 6 1.5 ${d}
    fix_modify conp2 tf 6 1.5 6.81038626666667
    run         200000 # 400 ps
PPPM/electrode initialization ...
  using 12-bit tables for long-range coulomb (src/kspace.cpp:342)
  G vector (1/distance) = 0.2378332
  grid = 40 45 100
  stencil order = 5
  estimated absolute RMS force accuracy = 0.0003635195
  estimated relative force accuracy = 1.0947282e-06
  using double precision FFTW3
  3d grid and FFT values/proc = 45144 22200
Generated 15 of 15 mixed pair_coeff terms from arithmetic mixing rule
WARNING: Neighbor exclusions used with KSpace solver may give inconsistent Coulombic energies (src/neighbor.cpp:654)
Neighbor list info ...
  update: every = 1 steps, delay = 10 steps, check = yes
  max neighbors/atom: 2000, page size: 100000
  master list distance cutoff = 16
  ghost atom cutoff = 16
  binsize = 8, bins = 6 6 7
  2 neighbor lists, perpetual/occasional/extra = 2 0 0
  (1) pair lj/cut/coul/long, perpetual
      attributes: half, newton on
      pair build: half/bin/newton
      stencil: half/bin/3d
      bin: standard
  (2) fix electrode/conp, perpetual, copy from (1)
      attributes: half, newton on
      pair build: copy
      stencil: none
      bin: none
Per MPI rank memory allocation (min/avg/max) = 28.61 | 29.13 | 30.84 Mbytes
   Step         PotEng         KinEng         E_coul         E_long         E_vdwl      c_watertemp  
     20000  -29614.87       4711.2778      93004.808     -127445.01      4825.3355      297.70881    
     20500  -29898.925      4823.558       92679.845     -127449.26      4870.4875      304.80387    
     21000  -29796.082      4816.2532      92702.346     -127449.92      4951.4927      304.34228    
     21500  -29794.986      4788.7161      92672.586     -127440.7       4973.1303      302.60219    
     22000  -29828.536      4712.5261      92705.666     -127446.57      4912.3703      297.78769    
     22500  -29765.672      4729.8707      92836.353     -127442.69      4840.6615      298.88371    
     23000  -29744.378      4757.7058      92844.267     -127447.48      4858.8374      300.64262    
     23500  -29664.201      4753.525       92788.198     -127442.37      4989.9705      300.37844    
     24000  -29736.882      4706.054       92737.343     -127443.83      4969.6094      297.37872    
     24500  -29878.585      4721.1527      92669.278     -127436.84      4888.9825      298.33281    
     25000  -29770.438      4725.3155      92773.854     -127449.37      4905.075       298.59586    
     25500  -29770.026      4589.8936      92780.324     -127448.99      4898.6356      290.03846    
     26000  -29631.43       4704.1657      93123.645     -127446.28      4691.2066      297.25939    
     26500  -29675.965      4758.0476      93053.967     -127441.32      4711.3905      300.66422    
     27000  -29776.254      4860.5673      92789.601     -127437.92      4872.0642      307.14251    
     27500  -29720.227      4766.1653      92931.856     -127444.85      4792.7642      301.17719    
     28000  -29693.508      4694.3843      92891.062     -127436         4851.4269      296.6413     
     28500  -29706.773      4705.5271      93065.5       -127449.3       4677.0308      297.34542    
     29000  -29892.92       4794.6003      92728.521     -127452.81      4831.3685      302.97402    
     29500  -29685.279      4784.0008      93033.556     -127445.75      4726.9126      302.30422    
     30000  -29833.566      4758.814       92760.28      -127446         4852.1561      300.71265    
     30500  -29827.738      4750.3302      92690.583     -127450.69      4932.369       300.17656    
     31000  -29827.304      4727.0311      92903.492     -127445.46      4714.6598      298.70427    
     31500  -29854.5        4745.2357      92779.34      -127452.98      4819.1449      299.85463    
     32000  -29703.758      4723.469       92984.037     -127445.53      4757.7385      298.47918    
     32500  -29810.643      4801.1821      92799.53      -127441.6       4831.4297      303.38992    
     33000  -29841.859      4802.5658      92639.88      -127442.62      4960.8767      303.47736    
     33500  -29758.328      4728.0265      92703.108     -127445.25      4983.8176      298.76717    
     34000  -29802.751      4685.6101      92780.62      -127445.99      4862.6241      296.08685    
     34500  -29724.498      4810.528       92817.289     -127446.74      4904.9552      303.9805     
     35000  -29894.232      4673.8466      92670.355     -127445.78      4881.1903      295.34351    
     35500  -29774.905      4752.6611      92874.695     -127447.62      4798.0173      300.32385    
     36000  -29804.7        4789.2113      92766.145     -127446.19      4875.3453      302.63348    
     36500  -29714.429      4779.6225      92854.866     -127449.17      4879.873       302.02755    
     37000  -29753.56       4800.8562      92606.788     -127439.74      5079.3943      303.36933    
     37500  -29916.369      4722.5594      92512.164     -127443.87      5015.333       298.4217     
     38000  -29848.684      4707.0424      92713.825     -127445.25      4882.7446      297.44117    
     38500  -29812.791      4726.8915      92718.987     -127448.59      4916.8149      298.69545    
     39000  -29762.993      4726.9803      92796.072     -127450.75      4891.6843      298.70106    
     39500  -29880.059      4749.1009      92735.37      -127445.45      4830.0166      300.09887    
     40000  -29905.81       4805.52        92695.384     -127452.69      4851.4974      303.66404    
     40500  -29773.242      4672.2545      92826.113     -127443.36      4844.0042      295.2429     
     41000  -29788.773      4725.3776      92750.344     -127440.61      4901.4895      298.59979    
     41500  -29702.723      4612.4404      92959.369     -127445.85      4783.7593      291.46321    
     42000  -29666.815      4757.71        92966.439     -127444.71      4811.4597      300.64289    
     42500  -29743.153      4783.4217      92803.07      -127444.03      4897.803       302.26763    
     43000  -29807.565      4702.8476      92765.301     -127441.73      4868.8627      297.1761     
     43500  -29715.703      4717.5859      92818.252     -127443.39      4909.4393      298.10742    
     44000  -29738.908      4720.2984      92951.642     -127445.07      4754.5198      298.27883    
     44500  -29814.038      4725.4708      92687.25      -127445.39      4944.0993      298.60568    
     45000  -29792.828      4822.3674      92675.373     -127444.07      4975.8644      304.72864    
     45500  -29785.119      4810.0929      92747.236     -127443.65      4911.2975      303.953      
     46000  -29932.563      4742.7958      92539.974     -127448.96      4976.4227      299.70045    
     46500  -29696.623      4730.2105      92935.49      -127441.39      4809.2731      298.90518    
     47000  -29788.401      4738.3593      92852.557     -127449.94      4808.9779      299.42011    
     47500  -29683.851      4766.1848      92814.243     -127438.72      4940.6238      301.17842    
     48000  -29812.612      4779.8214      92570.889     -127443.49      5059.9851      302.04012    
     48500  -29822.469      4669.981       92800.231     -127446.77      4824.065       295.09924    
     49000  -29742.431      4663.2499      92741.655     -127445.11      4961.0202      294.67389    
     49500  -29788.306      4744.2144      92767.389     -127437.39      4881.6907      299.79009    
     50000  -29913.308      4758.9795      92517.865     -127443.45      5012.2764      300.72311    
     50500  -29729.948      4769.6996      92899.943     -127438.23      4808.3434      301.40052    
     51000  -29730.251      4716.4717      92968.147     -127445.96      4747.566       298.03702    
     51500  -29860.661      4774.3756      92652.678     -127448.65      4935.3144      301.696      
     52000  -29930.693      4658.259       92531.352     -127446.31      4984.2648      294.35852    
     52500  -29932.697      4731.6202      92530.962     -127451.29      4987.6346      298.99426    
     53000  -29708.317      4801.0779      92956.056     -127442.42      4778.0516      303.38334    
     53500  -29710.734      4762.8609      93019.538     -127440.68      4710.4087      300.96838    
     54000  -29743.976      4732.051       92626.368     -127443.19      5072.8433      299.02148    
     54500  -29845.071      4772.9086      92718.846     -127446.36      4882.443       301.6033     
     55000  -29792.29       4703.5069      92700.88      -127440.94      4947.7663      297.21776    
     55500  -29758.395      4713.4727      92923.251     -127450.88      4769.2387      297.84751    
     56000  -29642.367      4817.5379      93047.535     -127449.83      4759.9229      304.42346    
     56500  -29881.937      4766.1473      92651.452     -127443.19      4909.8051      301.17605    
     57000  -29740.3        4760.3439      92787.553     -127443.09      4915.2328      300.80933    
     57500  -29801.217      4683.3836      92703.333     -127448.43      4943.8825      295.94615    
     58000  -29711.359      4766.5825      92883.02      -127440.03      4845.6537      301.20355    
     58500  -29852.15       4866.6057      92523.651     -127444.33      5068.5322      307.52409    
     59000  -29789.06       4603.7877      92662.11      -127441.94      4990.772       290.91644    
     59500  -29715.789      4837.5326      92820.428     -127439.28      4903.0676      305.68694    
     60000  -29835.106      4738.0004      92658.522     -127442.13      4948.5019      299.39743    
     60500  -29676.365      4734.6358      92890.025     -127446.75      4880.3594      299.18482    
     61000  -29794.153      4755.1495      92726.409     -127441.43      4920.8703      300.48109    
     61500  -29687.584      4773.2396      92865.06      -127453.06      4900.416       301.62422    
     62000  -29870.428      4888.7186      92573.183     -127448.03      5004.4177      308.92141    
     62500  -29875.695      4772.3732      92507.051     -127439.8       5057.0525      301.56947    
     63000  -29782.311      4700.9055      92861.851     -127449.5       4805.3385      297.05338    
     63500  -29880.334      4697.1739      92803.79      -127459.92      4775.794       296.81758    
     64000  -29711.195      4752.5013      92929.815     -127444.8       4803.7909      300.31375    
     64500  -29642.217      4743.8864      92884.975     -127440.56      4913.3643      299.76937    
     65000  -29778.633      4719.6359      92740.367     -127450.07      4931.0664      298.23696    
     65500  -29765.632      4774.3123      92676.834     -127443.08      5000.6096      301.692      
     66000  -29680.454      4653.0898      92923.856     -127446.23      4841.9217      294.03187    
     66500  -29704.927      4764.223       92917.358     -127449.3       4827.0152      301.05446    
     67000  -29794.87       4727.7647      92733.888     -127455.22      4926.4611      298.75063    
     67500  -29749.614      4753.8733      92870.752     -127440.44      4820.0749      300.40045    
     68000  -29765.569      4700.383       92598.807     -127444.58      5080.209       297.02036    
     68500  -29942.63       4766.6452      92507.327     -127447.62      4997.662       301.20751    
     69000  -29705.396      4829.1687      92885.893     -127440.03      4848.7382      305.15841    
     69500  -29786.074      4783.5358      92686.443     -127442.23      4969.7111      302.27484    
     70000  -29898.339      4711.819       92626.741     -127453.31      4928.2333      297.74301    
     70500  -29842.578      4758.9512      92778.459     -127451.91      4830.8777      300.72132    
     71000  -29801.724      4787.6084      92708.752     -127445.57      4935.0968      302.53219    
     71500  -29781.482      4805.7691      92841.788     -127450.19      4826.9256      303.67978    
     72000  -29833.874      4689.4024      92680.572     -127449.19      4934.7424      296.32649    
     72500  -29784.108      4791.0621      92725.81      -127441.69      4931.7717      302.75043    
     73000  -29919.874      4896.2283      92596.651     -127433.98      4917.452       309.39596    
     73500  -29727.238      4758.1686      92790.559     -127440.07      4922.2738      300.67187    
     74000  -30007.754      4744.2069      92653.153     -127450.69      4789.7859      299.78962    
     74500  -29778.554      4680.1593      92789.474     -127435.66      4867.6301      295.74241    
     75000  -29857.051      4808.8055      92672.112     -127440         4910.8401      303.87165    
     75500  -29892.21       4766.7511      92682.599     -127446.74      4871.9345      301.21421    
     76000  -29775.093      4645.3863      92875.947     -127446.46      4795.4202      293.54508    
     76500  -29860.883      4708.2477      92591.239     -127451.49      4999.3651      297.51733    
     77000  -29803.285      4772.6687      92707.489     -127445.25      4934.4775      301.58814    
     77500  -29815.911      4724.0587      92743.622     -127447.32      4887.7884      298.51644    
     78000  -29732.09       4771.2044      92827.296     -127439.15      4879.7612      301.49561    
     78500  -29702.739      4792.0339      92828.442     -127439.66      4908.4761      302.81184    
     79000  -29747.131      4719.5407      92902.372     -127452.87      4803.3684      298.23095    
     79500  -29831.571      4718.8449      92829.236     -127443.76      4782.9517      298.18698    
     80000  -29755.823      4604.852       92837.613     -127439.51      4846.0779      290.98369    
     80500  -29749.436      4736.4467      92791.662     -127448.21      4907.1172      299.29925    
     81000  -29736.673      4703.2144      92865.493     -127441.14      4838.9752      297.19928    
     81500  -29767.399      4649.3503      92869.536     -127448.62      4811.6805      293.79557    
     82000  -29717.282      4655.7673      92848.212     -127442.06      4876.5705      294.20107    
     82500  -29800.212      4737.3505      92778.55      -127447.84      4869.0806      299.35636    
     83000  -29630.845      4726.7363      92939.354     -127433.27      4863.0729      298.68564    
     83500  -29776.338      4820.6886      92748.233     -127446.21      4921.6343      304.62255    
     84000  -29788.471      4770.9293      92761.791     -127444.28      4894.0134      301.47823    
     84500  -29902.926      4748.1459      92737.222     -127450.38      4810.2292      300.03853    
     85000  -29809.381      4807.9214      92775.399     -127448.88      4864.1003      303.81578    
     85500  -29913.402      4674.9439      92607.999     -127449.8       4928.4031      295.41285    
     86000  -29739.904      4693.1447      92881.536     -127447.06      4825.6165      296.56297    
     86500  -29772.828      4676.5513      92781.823     -127446.98      4892.3296      295.51442    
     87000  -29691.494      4649.2663      92858.747     -127442.71      4892.467       293.79026    
     87500  -29871.507      4737.4361      92629.642     -127451.19      4950.041       299.36177    
     88000  -29551.131      4796.3245      93130.571     -127440.86      4759.1531      303.08297    
     88500  -29664.253      4681.0881      92872.463     -127437.62      4900.9038      295.8011     
     89000  -29830.036      4773.9607      92956.059     -127447.21      4661.1155      301.66978    
     89500  -29624.987      4738.3253      92899.915     -127443.63      4918.7254      299.41796    
     90000  -29625.436      4770.7568      92871.423     -127445.27      4948.4134      301.46733    
     90500  -29897.252      4778.1499      92643.769     -127447.37      4906.3513      301.9345     
     91000  -29758.326      4711.7849      92856.756     -127439.89      4824.8034      297.74085    
     91500  -29774.886      4751.2978      92980.756     -127450.35      4694.7053      300.2377     
     92000  -29875.935      4628.8316      92694.548     -127444.73      4874.2513      292.49898    
     92500  -29869.512      4678.2581      92741.487     -127441.05      4830.0486      295.62227    
     93000  -29805.119      4744.7369      92793.776     -127442.1       4843.2021      299.82311    
     93500  -29712.275      4700.511       92997.172     -127441.29      4731.8415      297.02845    
     94000  -29553.832      4758.9611      93076.137     -127443.22      4813.2565      300.72195    
     94500  -29839.683      4748.4439      92754.419     -127443.87      4849.7649      300.05736    
     95000  -29770.343      4835.1145      92907.007     -127454.12      4776.7696      305.53413    
     95500  -29901.502      4784.5072      92697.546     -127442.44      4843.3961      302.33622    
     96000  -29757.466      4731.7167      92720.679     -127443.7       4965.5521      299.00036    
     96500  -29722.633      4771.5031      92945.112     -127439.17      4771.4229      301.51449    
     97000  -29763.667      4696.759       92651.054     -127446.44      5031.7178      296.79135    
     97500  -29758.44       4797.7456      92849.586     -127448.36      4840.3378      303.17277    
     98000  -29597.129      4716.5718      93063.002     -127455.51      4795.3757      298.04334    
     98500  -29840.661      4762.6967      92763.159     -127444.8       4840.9793      300.95801    
     99000  -29783.853      4731.5102      92685.922     -127442.43      4972.6556      298.98731    
     99500  -29986.144      4735.608       92511.617     -127453.28      4955.5242      299.24625    
    100000  -29616.381      4801.7558      93107.1       -127439.47      4715.993       303.42618    
    100500  -29811.452      4704.4958      92648.25      -127441.41      4981.7047      297.28025    
    101000  -29859.778      4736.8183      92609.133     -127442.69      4973.7824      299.32273    
    101500  -29836.315      4709.6387      92817.948     -127447.55      4793.2867      297.60523    
    102000  -29877.329      4780.6287      92845.118     -127446.42      4723.9736      302.09114    
    102500  -29833.335      4784.2826      92561.68      -127448.19      5053.1755      302.32203    
    103000  -29748.68       4808.0814      92944.655     -127450.84      4757.5098      303.8259     
    103500  -29836.558      4676.1958      92850.126     -127441.91      4755.2219      295.49196    
    104000  -29908.12       4730.1549      92555.602     -127441.56      4977.8347      298.90166    
    104500  -29747.193      4671.5068      92606.369     -127449.85      5096.2851      295.19565    
    105000  -29816.958      4726.8161      92831.137     -127445.63      4797.535       298.69069    
    105500  -29834.879      4810.9995      92712.773     -127438.26      4890.6059      304.01029    
    106000  -29782.863      4773.5933      92767.164     -127447.27      4897.2483      301.64657    
    106500  -29704.113      4729.4918      93020.126     -127442.92      4718.6856      298.85976    
    107000  -29745.262      4752.1358      92968.79      -127453.11      4739.0621      300.29066    
    107500  -29788.92       4671.9957      92762.83      -127445.46      4893.7104      295.22655    
    108000  -29668.29       4798.5328      92998.971     -127445.04      4777.7816      303.22251    
    108500  -29820.346      4816.7709      92786.178     -127444.32      4837.796       304.37499    
    109000  -29671.932      4823.7109      92992.806     -127444.24      4779.4973      304.81353    
    109500  -29701.09       4780.1681      93191.267     -127446.33      4553.9696      302.06204    
    110000  -29649.107      4672.402       93120.826     -127450.68      4680.7442      295.25222    
    110500  -29676.193      4799.9772      92932.827     -127445.19      4836.1721      303.31379    
    111000  -29714.147      4751.3474      92827.512     -127444.72      4903.0579      300.24083    
    111500  -29787.899      4689.6185      92714.802     -127442.1       4939.399       296.34015    
    112000  -29799.307      4735.4296      92831.658     -127441.24      4810.2772      299.23498    
    112500  -29695.708      4716.4026      92804.685     -127439.56      4939.1618      298.03265    
    113000  -29556.262      4732.7389      93107.703     -127447.67      4783.7034      299.06495    
    113500  -29762.215      4758.2694      92904.599     -127441.56      4774.7486      300.67824    
    114000  -29821.583      4702.4238      92749.634     -127442.18      4870.9582      297.14932    
    114500  -29733.594      4767.2227      92820.262     -127443.81      4889.9487      301.24401    
    115000  -29735.848      4775.7395      92880.583     -127446.2       4829.7694      301.78219    
    115500  -29803.209      4724.0405      92753.651     -127443.92      4887.0639      298.51529    
    116000  -29911.107      4702.484       92698.298     -127438.6       4829.1986      297.15312    
    116500  -29943.359      4850.0677      92614.964     -127441.93      4883.606       306.47904    
    117000  -29824.373      4591.3504      92798.459     -127444.6       4821.768       290.13052    
    117500  -29755.741      4776.9755      92810.008     -127441.73      4875.9839      301.86029    
    118000  -29792.227      4769.7587      92743.872     -127443.22      4907.1178      301.40426    
    118500  -29718.405      4808.4266      92817.105     -127439.04      4903.5278      303.84771    
    119000  -29743.095      4771.4856      92782.183     -127443.56      4918.2794      301.51338    
    119500  -29719.918      4797.9512      92783.331     -127447.17      4943.9222      303.18576    
    120000  -29830.65       4701.5546      92740.015     -127442.09      4871.4215      297.09439    
    120500  -29883.713      4768.3325      92505.976     -127446.26      5056.5679      301.31413    
    121000  -29751.685      4715.2504      92791.599     -127438.5       4895.2191      297.95984    
    121500  -29885.336      4741.9164      92605.063     -127442.99      4952.5926      299.64488    
    122000  -29848.406      4660.0218      92601.201     -127442.22      4992.6126      294.46991    
    122500  -29848.672      4679.7535      92671.606     -127445.2       4924.9212      295.71677    
    123000  -29801.594      4716.813       92827.179     -127444.89      4816.1167      298.05858    
    123500  -29752.403      4840.0939      92937.975     -127444.48      4754.1015      305.84879    
    124000  -29685.055      4727.7965      92884.086     -127443.64      4874.4961      298.75264    
    124500  -29573.352      4679.8804      93037.448     -127449.71      4838.9059      295.72479    
    125000  -29740.584      4729.4423      92803.269     -127446.24      4902.3904      298.85663    
    125500  -29789.068      4723.3325      92773.206     -127446.62      4884.3434      298.47056    
    126000  -29732.238      4640.8603      92761.554     -127448.03      4954.2367      293.25908    
    126500  -29677.776      4818.2105      93022.143     -127438.41      4738.4934      304.46596    
    127000  -29908.102      4725.8309      92571.229     -127442.47      4963.1361      298.62843    
    127500  -29748.132      4709.5773      92786.804     -127442.61      4907.6726      297.60135    
    128000  -29736.486      4708.1887      92947.963     -127448.99      4764.5452      297.51361    
    128500  -29907.501      4727.8015      92682.868     -127447.15      4856.779       298.75295    
    129000  -29698.408      4625.1684      92883.755     -127445.98      4863.8163      292.2675     
    129500  -29602.774      4739.7274      92944.366     -127443.41      4896.2703      299.50656    
    130000  -29790.714      4705.6864      92758.858     -127441.24      4891.6653      297.35548    
    130500  -29793.848      4805.6133      92829.694     -127440.89      4817.3492      303.66993    
    131000  -29928.637      4774.9442      92654.098     -127450.71      4867.979       301.73193    
    131500  -29914.219      4705.9364      92557.279     -127440.24      4968.7403      297.37128    
    132000  -29777.143      4791.3346      92811.278     -127443.14      4854.7207      302.76765    
    132500  -29790.557      4782.5735      92671.225     -127441.29      4979.5061      302.21403    
    133000  -29850.597      4806.4459      92648.62      -127438.38      4939.165       303.72255    
    133500  -29851.268      4796.6724      92714.305     -127447.95      4882.3805      303.10495    
    134000  -29857.725      4901.5381      92619.316     -127439.98      4962.9375      309.73149    
    134500  -29746.098      4797.8458      92750.58      -127450.44      4953.763       303.1791     
    135000  -29841.16       4779.064       92892.222     -127452.64      4719.253       301.99226    
    135500  -29681.489      4783.6613      92771.24      -127447.05      4994.3249      302.28277    
    136000  -29799.55       4705.1662      92715.83      -127442.34      4926.963       297.32261    
    136500  -29762.78       4694.5651      92828.064     -127441.32      4850.4713      296.65272    
    137000  -29784.586      4798.6394      92558.241     -127443.79      5100.9649      303.22925    
    137500  -29759.933      4860.4343      92761.564     -127444.37      4922.875       307.13411    
    138000  -29834.104      4665.9454      92784.493     -127448.88      4830.2833      294.84423    
    138500  -29750.725      4823.4672      92653.003     -127446.97      5043.2433      304.79813    
    139000  -29923.82       4815.8009      92543.857     -127448.37      4980.6979      304.31369    
    139500  -29809.387      4768.6664      92557.221     -127444.8       5078.1909      301.33523    
    140000  -29697.328      4794.6085      92837.274     -127442.79      4908.1841      302.97453    
    140500  -29740.293      4772.5366      92938.634     -127445.1       4766.173       301.5798     
    141000  -29888.203      4825.405       92643.844     -127450.1       4918.0562      304.92059    
    141500  -29853.627      4775.9768      92766.46      -127444.41      4824.3239      301.79718    
    142000  -29583.925      4794.9688      93021.922     -127433.54      4827.6932      302.9973     
    142500  -29824.295      4706.3344      92677.219     -127444.98      4943.4702      297.39643    
    143000  -29760.77       4751.8251      92712.705     -127442.61      4969.1389      300.27102    
    143500  -29750.215      4678.8987      92838.404     -127443.44      4854.8171      295.66275    
    144000  -29845.231      4693.0469      92595.012     -127446.79      5006.549       296.55678    
    144500  -29677.662      4696.4975      92906.958     -127440.66      4856.0381      296.77483    
    145000  -29759.883      4754.3675      92863.021     -127442.13      4819.2282      300.43168    
    145500  -29626.559      4783.2196      93051.861     -127440.32      4761.8974      302.25486    
    146000  -29816.462      4701.535       92682.623     -127444.72      4945.6323      297.09316    
    146500  -29808.889      4735.1153      92711.318     -127449.99      4929.7797      299.21512    
    147000  -29894.515      4698.0991      92684.885     -127443.2       4863.7988      296.87604    
    147500  -29774.152      4727.1427      92686.944     -127439.53      4978.4297      298.71132    
    148000  -29781.903      4680.8371      92688.201     -127443.87      4973.7657      295.78524    
    148500  -29765.919      4800.228       92911.328     -127438.86      4761.6164      303.32964    
    149000  -29788.253      4818.0737      92801.613     -127439.57      4849.6999      304.45732    
    149500  -29738.244      4706.9706      92853.551     -127444.08      4852.2857      297.43663    
    150000  -29749.278      4661.6532      92888.123     -127446.21      4808.8084      294.573      
    150500  -29804.821      4687.6479      92874.852     -127442.19      4762.5211      296.21562    
    151000  -29785.205      4804.2202      92834.478     -127448.69      4829.0119      303.5819     
    151500  -29754.039      4724.4424      92740.152     -127440.18      4945.9885      298.54069    
    152000  -29959.947      4693.0444      92631.873     -127440.1       4848.282       296.55663    
    152500  -29652.06       4731.4946      92968.972     -127440.65      4819.6152      298.98632    
    153000  -29787.198      4799.4732      92667.7       -127442.27      4987.3709      303.28193    
    153500  -29709.056      4779.2326      92880.831     -127443.98      4854.0973      302.00292    
    154000  -29794.639      4664.1346      92790.699     -127440.27      4854.9361      294.7298     
    154500  -29798.845      4792.5294      92506.659     -127448.82      5143.3146      302.84315    
    155000  -29713.068      4777.4861      92868.201     -127446.28      4865.0109      301.89256    
    155500  -29680.521      4742.0001      92895.783     -127442.99      4866.6819      299.65017    
    156000  -29724.569      4744.1843      92787.592     -127436.01      4923.8445      299.78819    
    156500  -29833.835      4701.4266      92846.653     -127445.59      4765.1007      297.0863     
    157000  -29716.465      4791.4871      92890.3       -127441.09      4834.3211      302.77729    
    157500  -29818.887      4762.6521      92840.548     -127451.14      4791.7056      300.95519    
    158000  -29780.485      4735.5061      92812.256     -127442.19      4849.4496      299.23981    
    158500  -29675.354      4730.7267      92951.197     -127437.6       4811.0529      298.9378     
    159000  -29743.417      4725.8451      92842.598     -127440.3       4854.2832      298.62933    
    159500  -29796.675      4729.4274      92744.086     -127441.19      4900.4299      298.8557     
    160000  -29771.582      4855.4485      92851.706     -127436.63      4813.3415      306.81905    
    160500  -29794.066      4758.9341      92865.665     -127439.83      4780.0958      300.72024    
    161000  -29842.62       4794.8377      92764.108     -127437.79      4831.0584      302.98901    
    161500  -29641.778      4768.2154      92967.821     -127451.23      4841.6326      301.30674    
    162000  -29887.281      4729.1298      92669.087     -127450.63      4894.2648      298.83689    
    162500  -29730.441      4747.8309      93033.058     -127447.07      4683.5729      300.01862    
    163000  -29802.986      4797.7755      92773.913     -127441.61      4864.7106      303.17466    
    163500  -29772.789      4662.3496      92732.006     -127448.27      4943.4752      294.617      
    164000  -29897.068      4752.6097      92756.654     -127442.95      4789.2314      300.3206     
    164500  -29904.402      4787.1219      92493.53      -127450.81      5052.8768      302.50145    
    165000  -29745.448      4755.282       92877.755     -127443.42      4820.214       300.48947    
    165500  -29776.967      4697.3626      92715.23      -127444.18      4951.9874      296.8295     
    166000  -29842.457      4691.6921      92576.693     -127443.55      5024.399       296.47118    
    166500  -29665.898      4682.0604      92900.212     -127444.77      4878.6605      295.86254    
    167000  -29714.386      4667.1833      92955.469     -127446.63      4776.7803      294.92245    
    167500  -29817.644      4714.2966      92683.965     -127442.16      4940.5511      297.89957    
    168000  -29843.299      4642.47        92613.02      -127439.38      4983.0622      293.3608     
    168500  -29814.363      4788.9205      92720.592     -127454.61      4919.6551      302.61511    
    169000  -29610.16       4770.924       93062.432     -127441.07      4768.4793      301.47789    
    169500  -29747.348      4693.281       92852.63      -127445.18      4845.1991      296.57158    
    170000  -29817.517      4690.3959      92606.915     -127445.6       5021.1661      296.38927    
    170500  -29754.548      4764.8255      92788.772     -127448.75      4905.4332      301.09252    
    171000  -29833.581      4840.509       92653.66      -127444.52      4957.2783      305.87502    
    171500  -29829.009      4747.9117      92763.851     -127438.75      4845.8902      300.02373    
    172000  -29943.182      4636.6514      92653.365     -127446.2       4849.6511      292.99312    
    172500  -29829.344      4775.9103      92620.36      -127440.88      4991.1778      301.79298    
    173000  -29859.214      4694.7705      92697.523     -127446.94      4890.206       296.6657     
    173500  -29857.981      4719.3997      92654.122     -127441.84      4929.7384      298.22204    
    174000  -29668.331      4727.126       93040.022     -127441.68      4733.3223      298.71027    
    174500  -29693.171      4723.6817      93016.471     -127444.46      4734.8182      298.49262    
    175000  -29845.581      4763.2004      92787.349     -127440.72      4807.7875      300.98983    
    175500  -29869.965      4731.9979      92514.647     -127442.45      5057.8391      299.01812    
    176000  -29833.281      4878.9883      92528.23      -127442.17      5080.6571      308.30655    
    176500  -29816.084      4743.1343      92752.157     -127446.22      4877.98        299.72184    
    177000  -29770.653      4676.291       92817.142     -127445.4       4857.6007      295.49797    
    177500  -29746.934      4841.5428      92749.766     -127435.7       4938.9997      305.94034    
    178000  -29697.348      4701.1347      92931.299     -127442.73      4814.0817      297.06786    
    178500  -29693.87       4621.2092      92811.439     -127441.04      4935.7288      292.01731    
    179000  -29768.5        4784.5367      92890.21      -127455.62      4796.9078      302.33809    
    179500  -29861.512      4670.1258      92691.263     -127446.08      4893.3094      295.10839    
    180000  -29764.211      4794.7609      92821.117     -127442.44      4857.1142      302.98416    
    180500  -29749.134      4720.9352      92775.165     -127441.61      4917.3099      298.31906    
    181000  -29793.265      4678.8201      92732.416     -127439.16      4913.4834      295.65779    
    181500  -29713.106      4752.7774      92850.736     -127446.27      4882.4288      300.3312     
    182000  -29827.439      4785.2476      92832.103     -127444.76      4785.2204      302.38301    
    182500  -29845.871      4694.2988      92660.635     -127442.79      4936.2848      296.63589    
    183000  -29716.37       4707.8214      92947.521     -127447.44      4783.5526      297.4904     
    183500  -29741.894      4705.803       92825.894     -127437.15      4869.366       297.36285    
    184000  -29862.278      4666.9948      92563.92      -127445.67      5019.4678      294.91054    
    184500  -29880.036      4698.8145      92703.743     -127452.85      4869.0746      296.92124    
    185000  -29658.719      4709.2659      92782.839     -127435.14      4993.5804      297.58167    
    185500  -29753.127      4749.5344      92758.356     -127444.78      4933.301       300.12627    
    186000  -29723.224      4692.0057      92988.165     -127439.23      4727.8446      296.49099    
    186500  -29737.036      4693.413       92876.617     -127446.58      4832.9223      296.57992    
    187000  -29745.235      4684.392       92839.306     -127445         4860.4625      296.00988    
    187500  -29629.066      4880.8467      93032.211     -127438.13      4776.8514      308.42398    
    188000  -29756.976      4714.5953      92930.104     -127447.94      4760.8651      297.91844    
    188500  -29788.249      4728.7185      92809.74      -127440.25      4842.2599      298.8109     
    189000  -29615.092      4725.3411      93039.603     -127446.63      4791.9304      298.59748    
    189500  -29810.999      4764.6666      92625.714     -127441.84      5005.1238      301.08248    
    190000  -29749.598      4727.0706      92749.692     -127440.88      4941.5888      298.70677    
    190500  -29966.935      4739.71        92493.306     -127448.68      4988.443       299.50546    
    191000  -29787.104      4766.6311      92771.025     -127441.95      4883.8249      301.20662    
    191500  -29751.529      4752.0765      92666.601     -127439.75      5021.6206      300.28691    
    192000  -29875.207      4682.1061      92704.197     -127442.06      4862.653       295.86543    
    192500  -29764.398      4651.8192      92852.531     -127440.46      4823.5271      293.95158    
    193000  -29785.912      4754.9008      92736.268     -127443.11      4920.9304      300.46538    
    193500  -29622.856      4695.252       92876.538     -127435.96      4936.562       296.69613    
    194000  -29687.427      4715.7206      92965.357     -127442.63      4789.8415      297.98955    
    194500  -29813.132      4697.0111      92871.074     -127445.05      4760.8392      296.80729    
    195000  -29901.536      4769.9383      92675.565     -127445.36      4868.2618      301.4156     
    195500  -29743.801      4738.7073      92677.256     -127447.4       5026.3432      299.4421     
    196000  -29895.514      4766.5157      92496.715     -127441.55      5049.3178      301.19933    
    196500  -29942.783      4782.6418      92656.375     -127439.85      4840.6868      302.21835    
    197000  -29714.565      4827.4703      92889.38      -127443.39      4839.4415      305.05109    
    197500  -29752.142      4714.9174      92693.636     -127443.75      4997.9709      297.9388     
    198000  -29643.737      4803.3415      93026.527     -127434.32      4764.0595      303.52638    
    198500  -29797.838      4811.4741      92810.055     -127442.89      4834.9973      304.04028    
    199000  -29800.933      4690.9396      92670.221     -127444.71      4973.5547      296.42363    
    199500  -29596.378      4848.329       93037.555     -127440.94      4807.0041      306.36917    
    200000  -29824.664      4744.4542      92733.057     -127447.04      4889.3203      299.80525    
    200500  -29791.189      4703.5468      92692.413     -127447.38      4963.7753      297.22028    
    201000  -29765.499      4754.8482      92766.171     -127440.04      4908.3737      300.46205    
    201500  -29749.051      4672.0713      93000.658     -127437.47      4687.7626      295.23132    
    202000  -29790.293      4708.6865      92743.369     -127442.05      4908.3851      297.54506    
    202500  -29776.852      4710.6158      92799.6       -127448.41      4871.9561      297.66698    
    203000  -29739.96       4756.6696      92800.67      -127444.87      4904.2417      300.57715    
    203500  -29734.701      4747.0751      92906.733     -127440.93      4799.4997      299.97086    
    204000  -29804.908      4754.7406      92801.011     -127447.98      4842.065       300.45526    
    204500  -29707.193      4730.0593      92891.212     -127444.5       4846.092       298.89563    
    205000  -29851.529      4704.5183      92719.887     -127444.17      4872.7511      297.28167    
    205500  -29905.842      4795.3331      92602.931     -127443.69      4934.914       303.02032    
    206000  -29812.985      4824.6332      92575.161     -127443.8       5055.6513      304.87181    
    206500  -30014.487      4715.7241      92365.658     -127447.37      5067.2235      297.98978    
    207000  -29826.677      4760.9926      92669.768     -127446.98      4950.5367      300.85032    
    207500  -29758.79       4766.8523      92708.624     -127433.14      4965.7313      301.2206     
    208000  -29757.8        4742.4566      92819.118     -127446.33      4869.4118      299.67902    
    208500  -29750.584      4751.9192      92782.138     -127441.69      4908.9725      300.27697    
    209000  -29889.483      4793.3206      92599.42      -127449.3       4960.4013      302.89315    
    209500  -29714.457      4718.2047      92801.032     -127444.45      4928.9649      298.14652    
    210000  -29782.075      4688.8564      92772.082     -127441.97      4887.8131      296.29198    
    210500  -29877.963      4730.1777      92613.811     -127437.94      4946.1701      298.90311    
    211000  -29776.891      4755.7615      92687.861     -127441.48      4976.7243      300.51976    
    211500  -29771.487      4711.7508      92746.805     -127443.2       4924.9073      297.7387     
    212000  -29897.871      4712.0501      92473.859     -127441.68      5069.9481      297.75761    
    212500  -29714.43       4792.4399      92812.711     -127442.38      4915.2411      302.8375     
    213000  -29710.064      4716.1605      92883.47      -127441.83      4848.2989      298.01735    
    213500  -29758.39       4734.792       92906.712     -127447.83      4782.7275      299.19469    
    214000  -29634.81       4783.0336      93044.439     -127443.88      4764.6312      302.2431     
    214500  -29741.86       4695.3497      92787.786     -127447.06      4917.4098      296.7023     
    215000  -29717.486      4692.9629      92924.9       -127447.78      4805.3955      296.55148    
    215500  -29758.354      4763.6271      93008.28      -127443.83      4677.1986      301.0168     
    216000  -29832.701      4734.038       92649.857     -127443.46      4960.9068      299.14704    
    216500  -29723.624      4764.9446      92879.923     -127439.91      4836.3604      301.10005    
    217000  -29879.612      4694.6307      92634.747     -127442.02      4927.6645      296.65687    
    217500  -29862.835      4763.9267      92578.85      -127439.75      4998.06        301.03573    
    218000  -29773.179      4783.9067      92780.215     -127439.11      4885.7183      302.29828    
    218500  -29717.305      4724.122       92768.162     -127442.04      4956.5771      298.52044    
    219000  -29801.067      4761.968       92790.815     -127451.76      4859.8771      300.91196    
    219500  -29724.859      4792.2943      92956.287     -127440         4758.8547      302.8283     
    220000  -29843.498      4681.9492      92689.913     -127442.96      4909.5476      295.85552    
Loop time of 5651.77 on 30 procs for 200000 steps with 9401 atoms

Performance: 6.115 ns/day, 3.925 hours/ns, 35.387 timesteps/s, 332.675 katom-step/s
94.1% CPU use with 30 MPI tasks x 1 OpenMP threads

MPI task timing breakdown:
Section |  min time  |  avg time  |  max time  |%varavg| %total
---------------------------------------------------------------
Pair    | 472.98     | 1061.3     | 1369.6     | 764.6 | 18.78
Bond    | 0.12215    | 0.25232    | 0.34069    |  10.1 |  0.00
Kspace  | 1420.4     | 1728.1     | 2314.5     | 599.0 | 30.58
Neigh   | 395.98     | 398.44     | 401.72     |   7.4 |  7.05
Comm    | 150.18     | 171.67     | 188.59     |  71.3 |  3.04
Output  | 5.7869     | 7.7804     | 9.7549     |  42.8 |  0.14
Modify  | 2263.4     | 2275.6     | 2288.8     |  13.1 | 40.26
Other   |            | 8.601      |            |       |  0.15

Nlocal:        313.367 ave         362 max         278 min
Histogram: 4 7 6 1 0 0 3 3 4 2
Nghost:        7657.93 ave        9373 max        6006 min
Histogram: 12 0 0 0 0 0 3 9 0 6
Neighs:         213334 ave      263492 max      124387 min
Histogram: 6 0 0 0 0 0 4 10 7 3

Total # of neighbors = 6400028
Ave neighs/atom = 680.78162
Ave special neighs/atom = 1.6919477
Neighbor list builds = 19308
Dangerous builds = 13265
    #write_data structure.data
    undump alldump
    next l
    unfix conp2
    jump SELF loop_start
    variable l_tf equal ${l}/2
    variable l_tf equal 4/2
    # fix id group1 electrode/conp psi1 eta couple group2 psi2 write_inv
    # fix conp1 lower electrode/conp 0.0 5 couple upper 0.0 write_inv inv.out etypes 1*6 # Write call to not have to determine the matrix twice
    fix conp1 lower electrode/conp 0.0 2.925 couple upper 0.0# Write call to not have to determine the matrix twice
1440 atoms in group conp_group
    fix_modify conp1 tf 1 ${l_tf} ${d}
    fix_modify conp1 tf 1 2 ${d}
    fix_modify conp1 tf 1 2 6.81038626666667
    fix_modify conp1 tf 6 ${l_tf} ${d}
    fix_modify conp1 tf 6 2 ${d}
    fix_modify conp1 tf 6 2 6.81038626666667
    # fix conp1 lower electrode/conp 0.0 5 couple upper 0.0 read_inv inv.out # Write call to not have to determine the matrix twice

    # ======== equilibrate for ? ns ========
    reset_timestep 0
    thermo 50
    # dump equilxtc h2o xtc 50 equil.xtc
    run 500 # 1 ps, ~ correlation time of spce water
PPPM/electrode initialization ...
  using 12-bit tables for long-range coulomb (src/kspace.cpp:342)
  G vector (1/distance) = 0.23783322
  grid = 40 45 100
  stencil order = 5
  estimated absolute RMS force accuracy = 0.00036352233
  estimated relative force accuracy = 1.0947367e-06
  using double precision FFTW3
  3d grid and FFT values/proc = 45144 22200
Generated 15 of 15 mixed pair_coeff terms from arithmetic mixing rule
WARNING: Neighbor exclusions used with KSpace solver may give inconsistent Coulombic energies (src/neighbor.cpp:654)
Neighbor list info ...
  update: every = 1 steps, delay = 10 steps, check = yes
  max neighbors/atom: 2000, page size: 100000
  master list distance cutoff = 16
  ghost atom cutoff = 16
  binsize = 8, bins = 6 6 7
  2 neighbor lists, perpetual/occasional/extra = 2 0 0
  (1) pair lj/cut/coul/long, perpetual
      attributes: half, newton on
      pair build: half/bin/newton
      stencil: half/bin/3d
      bin: standard
  (2) fix electrode/conp, perpetual, copy from (1)
      attributes: half, newton on
      pair build: copy
      stencil: none
      bin: none
Per MPI rank memory allocation (min/avg/max) = 27.35 | 27.86 | 29.57 Mbytes
   Step         PotEng         KinEng         E_coul         E_long         E_vdwl      c_watertemp  
         0  -29830.97       4681.9492      92699.249     -127439.77      4909.5476      295.85552    
        50  -29779.353      4658.9548      92625.006     -127441.56      5037.1958      294.40248    
       100  -29749.656      4692.5493      92660.424     -127448.83      5038.7467      296.52534    
       150  -29735.178      4746.2669      92811.587     -127437.02      4890.2571      299.91979    
       200  -29721.477      4768.1925      92912.888     -127445.21      4810.8435      301.30529    
       250  -29736.973      4782.8109      92772.707     -127450.75      4941.0707      302.22903    
       300  -29684.471      4716.7479      92811.656     -127448.24      4952.117       298.05447    
       350  -29729.158      4737.9919      92774.391     -127450.26      4946.7134      299.39689    
       400  -29784.255      4756.748       92710.457     -127440.99      4946.2761      300.5821     
       450  -29769.61       4705.6059      92763.792     -127447.07      4913.6696      297.3504     
       500  -29862.208      4777.5842      92625.194     -127449.06      4961.6607      301.89876    
Loop time of 14.6381 on 30 procs for 500 steps with 9401 atoms

Performance: 5.902 ns/day, 4.066 hours/ns, 34.157 timesteps/s, 321.114 katom-step/s
94.3% CPU use with 30 MPI tasks x 1 OpenMP threads

MPI task timing breakdown:
Section |  min time  |  avg time  |  max time  |%varavg| %total
---------------------------------------------------------------
Pair    | 1.1549     | 2.6474     | 3.8985     |  49.7 | 18.09
Bond    | 0.00028297 | 0.00062463 | 0.00091164 |   0.0 |  0.00
Kspace  | 3.3221     | 4.5615     | 6.0504     |  37.8 | 31.16
Neigh   | 1.0422     | 1.0465     | 1.0544     |   0.3 |  7.15
Comm    | 0.3584     | 0.39857    | 0.4293     |   3.1 |  2.72
Output  | 0.0010413  | 0.0010679  | 0.0014237  |   0.2 |  0.01
Modify  | 5.9377     | 5.9616     | 5.9832     |   0.5 | 40.73
Other   |            | 0.02067    |            |       |  0.14

Nlocal:        313.367 ave         366 max         269 min
Histogram: 3 5 6 3 1 0 2 4 3 3
Nghost:        7663.13 ave        9373 max        6025 min
Histogram: 12 0 0 0 0 0 4 8 0 6
Neighs:         213134 ave      270816 max      121175 min
Histogram: 6 0 0 0 0 1 6 9 5 3

Total # of neighbors = 6394007
Ave neighs/atom = 680.14116
Ave special neighs/atom = 1.6919477
Neighbor list builds = 47
Dangerous builds = 28

    write_dump solvent xyz water_ions.xyz
    write_data equilibrated_structure.data
System init for write_data ...
PPPM/electrode initialization ...
  using 12-bit tables for long-range coulomb (src/kspace.cpp:342)
  G vector (1/distance) = 0.2378332
  grid = 40 45 100
  stencil order = 5
  estimated absolute RMS force accuracy = 0.00036351952
  estimated relative force accuracy = 1.0947282e-06
  using double precision FFTW3
  3d grid and FFT values/proc = 45144 22200
Generated 15 of 15 mixed pair_coeff terms from arithmetic mixing rule
WARNING: Neighbor exclusions used with KSpace solver may give inconsistent Coulombic energies (src/neighbor.cpp:654)

    ## ======== production run ========


    reset_timestep 0
    # Dump to also show the changing charge of the walls
    dump alldump all custom 50 wallcharge_${l_tf}.lammpstrj id type x y z q
    dump alldump all custom 50 wallcharge_2.lammpstrj id type x y z q
    thermo 500 # frequency log file
    #
    variable doutx equal 50 # 0.1ps
    #
    #dump xtc all xtc ${doutx} traj.xtc
    run 20000
PPPM/electrode initialization ...
  using 12-bit tables for long-range coulomb (src/kspace.cpp:342)
  G vector (1/distance) = 0.2378332
  grid = 40 45 100
  stencil order = 5
  estimated absolute RMS force accuracy = 0.00036351952
  estimated relative force accuracy = 1.0947282e-06
  using double precision FFTW3
  3d grid and FFT values/proc = 45144 22200
Generated 15 of 15 mixed pair_coeff terms from arithmetic mixing rule
WARNING: Neighbor exclusions used with KSpace solver may give inconsistent Coulombic energies (src/neighbor.cpp:654)
Per MPI rank memory allocation (min/avg/max) = 27.35 | 27.86 | 29.57 Mbytes
   Step         PotEng         KinEng         E_coul         E_long         E_vdwl      c_watertemp  
         0  -29862.208      4777.5842      92625.186     -127449.05      4961.6607      301.89876    
       500  -29745.292      4762.4893      92983.036     -127446.25      4717.9193      300.9449     
      1000  -29849.768      4652.3097      92633.316     -127451.43      4968.3501      293.98257    
      1500  -29731.965      4656.374       92799.747     -127446.91      4915.2005      294.2394     
      2000  -29706.612      4747.6353      92960.724     -127450.56      4783.2213      300.00626    
      2500  -29815.965      4701.2658      92670.536     -127451.93      4965.4335      297.07615    
      3000  -29607.922      4749.7687      92989.096     -127444.33      4847.3101      300.14108    
      3500  -29702.806      4705.0135      92851.222     -127452.81      4898.784       297.31296    
      4000  -29749.302      4707.6021      92814.153     -127452.19      4888.7376      297.47654    
      4500  -29884.345      4773.3512      92708.015     -127454.9       4862.538       301.63127    
      5000  -29839.91       4725.1911      92527.109     -127448.07      5081.0503      298.588      
      5500  -29849.915      4756.8715      92652.594     -127449.39      4946.8819      300.5899     
      6000  -29860.017      4743.094       92654.345     -127448.39      4934.0309      299.7193     
      6500  -29772.588      4719.4947      92812.692     -127446.52      4861.2375      298.22804    
      7000  -29853.752      4661.923       92604.613     -127454.67      4996.307       294.59004    
      7500  -29793.821      4705.0797      92865.881     -127446.95      4787.2514      297.31715    
      8000  -29926.581      4703.5176      92439.589     -127447.96      5081.7862      297.21844    
      8500  -29706.084      4781.0753      92957.44      -127445.24      4781.7107      302.11936    
      9000  -29748.682      4740.1437      92817.518     -127451.8       4885.6022      299.53287    
      9500  -29708.571      4721.0733      92750.559     -127444.73      4985.5952      298.32779    
     10000  -29734.146      4729.5378      92884.55      -127451.05      4832.3584      298.86267    
     10500  -29816.069      4673.8364      92563.392     -127449.93      5070.4676      295.34286    
     11000  -29768.09       4792.8473      92798.309     -127444.67      4878.2688      302.86324    
     11500  -29789.523      4752.943       92779.862     -127445.16      4875.7713      300.34166    
     12000  -29805.01       4643.9467      92648.815     -127447.9       4994.079       293.45411    
     12500  -29961.179      4721.16        92556.601     -127456.12      4938.3372      298.33327    
     13000  -29702.489      4780.8873      92946.59      -127448.63      4799.5469      302.10748    
     13500  -29775.011      4722.3354      92861.515     -127452.33      4815.801       298.40754    
     14000  -29846.48       4758.6992      92797.122     -127447.93      4804.3283      300.7054     
     14500  -29753.397      4727.2689      92738.122     -127449.82      4958.3005      298.71929    
     15000  -29907.543      4766.3088      92872.915     -127450.46      4670.0006      301.18626    
     15500  -29840.642      4731.3825      92638.216     -127446.01      4967.1513      298.97924    
     16000  -29867.405      4627.5138      92671.185     -127449.74      4911.1519      292.41571    
     16500  -29784.193      4612.6979      92934.068     -127452.62      4734.3636      291.47948    
     17000  -29807.861      4792.7488      92929.215     -127445.37      4708.2916      302.85702    
     17500  -29767.667      4667.7717      92707.603     -127448.46      4973.1942      294.95963    
     18000  -29780.35       4676.5746      92598.868     -127442.41      5063.1896      295.51589    
     18500  -29684.404      4825.851       92947.442     -127440.55      4808.6995      304.94877    
     19000  -29927.383      4719.9136      92621.62      -127453.72      4904.714       298.25451    
     19500  -29873.064      4723.8874      92749.704     -127454.55      4831.7819      298.50562    
     20000  -29756.801      4684.6046      92760.526     -127446.89      4929.5622      296.02331    
Loop time of 554.079 on 30 procs for 20000 steps with 9401 atoms

Performance: 6.237 ns/day, 3.848 hours/ns, 36.096 timesteps/s, 339.338 katom-step/s
94.1% CPU use with 30 MPI tasks x 1 OpenMP threads

MPI task timing breakdown:
Section |  min time  |  avg time  |  max time  |%varavg| %total
---------------------------------------------------------------
Pair    | 47.129     | 103.92     | 139.24     | 276.1 | 18.76
Bond    | 0.017421   | 0.024046   | 0.035025   |   3.1 |  0.00
Kspace  | 128        | 162.94     | 219.93     | 220.8 | 29.41
Neigh   | 41.845     | 42.204     | 42.572     |   2.8 |  7.62
Comm    | 14.559     | 17.098     | 19.412     |  30.2 |  3.09
Output  | 0.6015     | 0.82058    | 1.0523     |  15.1 |  0.15
Modify  | 224.29     | 226.23     | 227.82     |   5.5 | 40.83
Other   |            | 0.8363     |            |       |  0.15

Nlocal:        313.367 ave         368 max         273 min
Histogram: 2 7 6 3 0 0 4 2 5 1
Nghost:         7674.6 ave        9363 max        6013 min
Histogram: 12 0 0 0 0 0 0 12 0 6
Neighs:         213271 ave      256053 max      124812 min
Histogram: 3 2 1 0 0 0 2 8 12 2

Total # of neighbors = 6398132
Ave neighs/atom = 680.57994
Ave special neighs/atom = 1.6919477
Neighbor list builds = 1931
Dangerous builds = 1342
    unfix conp1
    fix conp2 lower electrode/conp 0.5 2.925 couple upper -0.5
1440 atoms in group conp_group
    fix_modify conp2 tf 1 ${l_tf} ${d}
    fix_modify conp2 tf 1 2 ${d}
    fix_modify conp2 tf 1 2 6.81038626666667
    fix_modify conp2 tf 6 ${l_tf} ${d}
    fix_modify conp2 tf 6 2 ${d}
    fix_modify conp2 tf 6 2 6.81038626666667
    run         200000 # 400 ps
PPPM/electrode initialization ...
  using 12-bit tables for long-range coulomb (src/kspace.cpp:342)
  G vector (1/distance) = 0.2378332
  grid = 40 45 100
  stencil order = 5
  estimated absolute RMS force accuracy = 0.00036351888
  estimated relative force accuracy = 1.0947263e-06
  using double precision FFTW3
  3d grid and FFT values/proc = 45144 22200
Generated 15 of 15 mixed pair_coeff terms from arithmetic mixing rule
WARNING: Neighbor exclusions used with KSpace solver may give inconsistent Coulombic energies (src/neighbor.cpp:654)
Neighbor list info ...
  update: every = 1 steps, delay = 10 steps, check = yes
  max neighbors/atom: 2000, page size: 100000
  master list distance cutoff = 16
  ghost atom cutoff = 16
  binsize = 8, bins = 6 6 7
  2 neighbor lists, perpetual/occasional/extra = 2 0 0
  (1) pair lj/cut/coul/long, perpetual
      attributes: half, newton on
      pair build: half/bin/newton
      stencil: half/bin/3d
      bin: standard
  (2) fix electrode/conp, perpetual, copy from (1)
      attributes: half, newton on
      pair build: copy
      stencil: none
      bin: none
Per MPI rank memory allocation (min/avg/max) = 28.61 | 29.13 | 30.84 Mbytes
   Step         PotEng         KinEng         E_coul         E_long         E_vdwl      c_watertemp  
     20000  -29754.47       4684.6046      92760.958     -127444.99      4929.5622      296.02331    
     20500  -29845.198      4721.234       92709.564     -127447.28      4892.5149      298.33795    
     21000  -29763.942      4731.0431      92736.931     -127443.15      4942.2817      298.95779    
     21500  -29681.615      4803.9878      92856.895     -127446.36      4907.8473      303.56722    
     22000  -29791.168      4772.6971      92790.191     -127440.99      4859.63        301.58994    
     22500  -29657.667      4721.7824      92798.868     -127445         4988.4689      298.3726     
     23000  -29833.651      4737.242       92696.047     -127452.18      4922.4774      299.34951    
     23500  -29648.28       4694.6029      93036.839     -127439.86      4754.7431      296.65511    
     24000  -29756.618      4768.2925      92868.783     -127456.01      4830.6068      301.3116     
     24500  -29762.252      4747.412       92943.649     -127446.68      4740.7812      299.99216    
     25000  -29694.027      4768.393       92777.816     -127443.43      4971.5864      301.31796    
     25500  -29839.033      4715.8377      92839.492     -127445.77      4767.2489      297.99695    
     26000  -29871.045      4724.1921      92611.363     -127443.17      4960.7615      298.52487    
     26500  -29810.936      4743.9954      92626.344     -127440.19      5002.9154      299.77625    
     27000  -29736.741      4727.5134      92758.155     -127448.82      4953.9251      298.73475    
     27500  -29863.273      4717.9968      92712.335     -127442.12      4866.5174      298.13339    
     28000  -29824.307      4589.434       92624.098     -127445.69      4997.2866      290.00942    
     28500  -29773.619      4681.9448      92795.063     -127450.89      4882.2079      295.85524    
     29000  -29691.412      4645.9235      92840.916     -127440.22      4907.893       293.57902    
     29500  -29792.095      4790.1531      92693.737     -127450.1       4964.2632      302.69299    
     30000  -29686.664      4807.5559      92771.527     -127439.88      4981.6887      303.79268    
     30500  -29879.779      4805.0495      92514.108     -127439.71      5045.8209      303.63431    
     31000  -29890.73       4703.3343      92668.545     -127451.65      4892.3721      297.20685    
     31500  -29724.399      4746.6466      92848.279     -127447.25      4874.5733      299.94378    
     32000  -29858.968      4786.1321      92663.89      -127448.81      4925.9549      302.4389     
     32500  -29871.166      4758.776       92739.531     -127450.64      4839.9461      300.71025    
     33000  -29658.704      4734.3189      93103.661     -127442.8       4680.4316      299.16479    
     33500  -29696.692      4740.489       92901.911     -127449.28      4850.6761      299.55469    
     34000  -29799.567      4676.0728      92758.907     -127437.35      4878.8739      295.48418    
     34500  -29739.995      4783.4842      92805.915     -127446.59      4900.6802      302.27158    
     35000  -29704.245      4711.8387      92849.541     -127443.84      4890.0559      297.74425    
     35500  -29909.828      4692.8081      92593.323     -127446.65      4943.5026      296.5417     
     36000  -29938.339      4762.1436      92531.005     -127435.56      4966.2133      300.92305    
     36500  -29860.866      4774.1369      92764.011     -127445.13      4820.254       301.68092    
     37000  -29655.205      4731.3092      92802.881     -127441.44      4983.3507      298.97461    
     37500  -29878.856      4751.3625      92671.161     -127444.4       4894.3867      300.24179    
     38000  -29764.152      4744.6509      92862.074     -127443.83      4817.5997      299.81768    
     38500  -29784.917      4699.7802      92613.063     -127445.67      5047.6927      296.98227    
     39000  -29841.947      4825.9862      92647.731     -127439.45      4949.7738      304.95731    
     39500  -29691.022      4817.6867      92893.115     -127433.7       4849.5629      304.43286    
     40000  -29739.973      4785.4597      92879.121     -127451.87      4832.7738      302.39641    
     40500  -29957.755      4674.1913      92529.798     -127445.92      4958.3684      295.36529    
     41000  -29801.667      4708.1726      92794.256     -127448.24      4852.3194      297.51259    
     41500  -29776.247      4800.5322      92745.632     -127449.31      4927.4333      303.34885    
     42000  -29761.345      4781.9895      92704.252     -127448.16      4982.5679      302.17713    
     42500  -29792.404      4767.5731      92662.242     -127451.73      4997.0789      301.26615    
     43000  -29766.069      4726.827       92666.415     -127453.8       5021.3156      298.69138    
     43500  -29669.889      4782.2129      92954.683     -127454.35      4829.7776      302.19125    
     44000  -29746.079      4763.366       92812.951     -127440.47      4881.4361      301.00029    
     44500  -29773.063      4712.125       92724.32      -127448.73      4951.3501      297.76235    
     45000  -29646.814      4766.4539      93000.328     -127444.29      4797.151       301.19542    
     45500  -29701.49       4750.7349      92894.57      -127441.94      4845.8844      300.20213    
     46000  -29798.303      4701.0284      92814.151     -127447.94      4835.488       297.06114    
     46500  -29709.573      4847.4735      92943.243     -127449.45      4796.636       306.3151     
     47000  -29668.106      4779.1042      92853.035     -127449.79      4928.6515      301.9948     
     47500  -29847.068      4780.2404      92695.278     -127447.3       4904.956       302.0666     
     48000  -29857.443      4708.1681      92659.419     -127456.35      4939.4906      297.5123     
     48500  -29739.822      4704.4778      92964.234     -127440.77      4736.7139      297.27911    
     49000  -29778.873      4752.4619      92984.257     -127446.22      4683.0936      300.31126    
     49500  -29860.133      4775.4874      92776.891     -127438.67      4801.6427      301.76626    
     50000  -29893.011      4774.953       92528.921     -127450.99      5029.0546      301.73249    
     50500  -29611.593      4821.1223      92929.571     -127449.57      4908.4019      304.64996    
     51000  -29730.161      4661.1921      92906.561     -127442.28      4805.5605      294.54386    
     51500  -29809.603      4793.5164      92865.987     -127437.41      4761.8248      302.90552    
     52000  -29609.173      4715.5741      93102.295     -127449.1       4737.6346      297.98029    
     52500  -29679.995      4642.5148      92933.7       -127444.25      4830.5591      293.36363    
     53000  -29776.595      4777.3942      92790.414     -127451.5       4884.4916      301.88675    
     53500  -29878.343      4777.9359      92661.143     -127443.71      4904.2233      301.92098    
     54000  -29826.49       4700.2608      92669.344     -127447.17      4951.3386      297.01263    
     54500  -29878.199      4838.8539      92621.708     -127446.95      4947.0383      305.77043    
     55000  -29649.691      4809.3187      92858.825     -127452.06      4943.5464      303.90408    
     55500  -29813.661      4717.521       92749.176     -127446.65      4883.8121      298.10332    
     56000  -29670.446      4781.7753      92761.93      -127447.34      5014.961       302.16359    
     56500  -29898.133      4687.1466      92536.886     -127445.33      5010.3152      296.18394    
     57000  -29750.62       4765.5389      92996.226     -127447.28      4700.437       301.13761    
     57500  -29704.109      4779.4961      92864.517     -127448.85      4880.2199      302.01957    
     58000  -29761.116      4745.5532      92801.877     -127443.92      4880.9292      299.8747     
     58500  -29853.355      4730.1536      92785.657     -127454.33      4815.3168      298.90159    
     59000  -29689.01       4799.3894      92994.184     -127451.59      4768.4         303.27664    
     59500  -29705.051      4683.9026      92823.227     -127445.75      4917.4751      295.97895    
     60000  -29821.583      4671.0358      92956.71      -127454.02      4675.7224      295.16589    
     60500  -29714.124      4787.2075      92626.486     -127448.64      5108.0252      302.50686    
     61000  -29888.852      4744.5736      92580.848     -127446.01      4976.3123      299.81279    
     61500  -29652.196      4744.6897      92920.387     -127446.81      4874.2288      299.82013    
     62000  -29694.967      4731.6663      92900.632     -127451.59      4855.9932      298.99717    
     62500  -29797.804      4737.0703      92852.531     -127446.94      4796.6041      299.33866    
     63000  -29813.189      4802.5433      92644.689     -127449.73      4991.855       303.47594    
     63500  -29670.134      4808.5636      92958.132     -127441.32      4813.0512      303.85636    
     64000  -29897.014      4766.6872      92832.71      -127450.91      4721.1835      301.21017    
     64500  -29811.2        4734.5805      92727.431     -127442.11      4903.4779      299.18132    
     65000  -29720.406      4634.1306      92980.55      -127451.73      4750.7747      292.83383    
     65500  -29859.476      4825.343       92752.326     -127451.94      4840.1326      304.91666    
     66000  -29770.581      4706.9557      92763.776     -127444.52      4910.163       297.43569    
     66500  -29673.735      4797.6923      92994.079     -127446.48      4778.6674      303.1694     
     67000  -29748.974      4774.3228      92817.288     -127451.15      4884.8883      301.69267    
     67500  -29826.355      4755.6143      92917.985     -127445.79      4701.4498      300.51046    
     68000  -29820.624      4741.8053      92715.567     -127440.87      4904.6754      299.63786    
     68500  -29827.901      4781.5185      92718.173     -127451.27      4905.1992      302.14737    
     69000  -29771.545      4753.4589      92860.195     -127447.33      4815.5861      300.37426    
     69500  -29704.099      4767.1246      92693.653     -127447.08      5049.3268      301.23781    
     70000  -29727.797      4833.2694      92835.793     -127442.59      4879.0005      305.41754    
     70500  -29740.715      4751.6237      93004.838     -127449.66      4704.1125      300.2583     
     71000  -29819.569      4686.0138      92617.878     -127447.36      5009.9079      296.11236    
     71500  -29702.143      4771.3974      92832.4       -127445.41      4910.8661      301.50781    
     72000  -29651.087      4696.143       92948.903     -127445.06      4845.0692      296.75243    
     72500  -29783.201      4718.8957      92801.854     -127450.06      4865.0085      298.19019    
     73000  -29871.146      4792.9618      92649.265     -127444.69      4924.2803      302.87048    
     73500  -29723.494      4767.7552      93025.288     -127453.16      4704.3779      301.27765    
     74000  -29857.254      4745.0011      92601.66      -127446.42      4987.5022      299.8398     
     74500  -29861.73       4725.3578      92581.805     -127438.16      4994.6231      298.59853    
     75000  -29740.257      4731.3803      92622.224     -127444.1       5081.6171      298.9791     
     75500  -29719.928      4774.1451      92737.028     -127439.74      4982.7851      301.68144    
     76000  -29779.842      4821.8879      92764.919     -127448.59      4903.8333      304.69834    
     76500  -29773.272      4750.3784      92820.757     -127442.67      4848.6395      300.1796     
     77000  -29792.392      4757.2579      92712.925     -127453.2       4947.8822      300.61433    
     77500  -29867.625      4733.5643      92585.928     -127449.51      4995.9581      299.11711    
     78000  -29721.663      4801.9735      92835.92      -127442.52      4884.933       303.43993    
     78500  -29733.868      4708.8678      92660.401     -127447         5052.7334      297.55652    
     79000  -29913.567      4728.9019      92508.393     -127455.04      5033.0823      298.82249    
     79500  -29760.974      4776.0192      92776.545     -127446.33      4908.8131      301.79986    
     80000  -29717.468      4741.4667      92941.345     -127442.53      4783.721       299.61647    
     80500  -29732.125      4745.3319      92770.849     -127443.61      4940.638       299.86071    
     81000  -29762.403      4672.6511      92868.716     -127437.24      4806.1191      295.26796    
     81500  -29628.324      4828.6127      93016.584     -127445.77      4800.8584      305.12328    
     82000  -29748.532      4727.9311      92807.635     -127443.14      4886.9686      298.76114    
     82500  -29876.174      4744.7564      92583.467     -127437.58      4977.9354      299.82435    
     83000  -29816.739      4775.9458      92739.968     -127445.19      4888.4858      301.79522    
     83500  -29826.897      4735.7332      92831.684     -127453.74      4795.1618      299.25416    
     84000  -29817.798      4687.3105      92791.313     -127441.7       4832.594       296.1943     
     84500  -29870.783      4691.2334      92640.317     -127449.64      4938.5363      296.44219    
     85000  -29817.962      4856.5683      92846.685     -127444.85      4780.2073      306.88981    
     85500  -29690.169      4733.7997      92789.917     -127445.55      4965.4586      299.13198    
     86000  -29771.544      4759.585       92731.602     -127446.62      4943.4787      300.76138    
     86500  -29808.527      4684.0974      92701.604     -127446.34      4936.2087      295.99126    
     87000  -29778.858      4671.0222      92791.064     -127451.4       4881.4759      295.16503    
     87500  -29763.432      4709.8947      92826.761     -127447.38      4857.1895      297.62141    
     88000  -29713.784      4720.3901      92982.133     -127447.41      4751.4909      298.28462    
     88500  -29793.576      4819.2582      92718.608     -127442.24      4930.058       304.53216    
     89000  -29609.976      4725.9137      92880.75      -127447.54      4956.8166      298.63366    
     89500  -29793.214      4823.1627      92896.219     -127447.38      4757.9493      304.77889    
     90000  -29717.123      4710.2651      92949.58      -127447.23      4780.5247      297.64482    
     90500  -29676.714      4755.399       92967.941     -127445.51      4800.8524      300.49686    
     91000  -29816.726      4730.7436      92617.565     -127450.73      5016.4426      298.93886    
     91500  -29761.046      4809.5307      92934.165     -127448.33      4753.1141      303.91748    
     92000  -29833.203      4777.6929      92722.217     -127441.45      4886.0284      301.90562    
     92500  -29861.526      4698.3959      92720.121     -127449.76      4868.118       296.89479    
     93000  -29660.566      4734.2223      92910.679     -127451.03      4879.7866      299.15869    
     93500  -29672.505      4798.5374      93080.369     -127442.02      4689.1503      303.2228     
     94000  -29757.683      4635.6449      92908.825     -127452.96      4786.4569      292.92952    
     94500  -29789.793      4696.583       92892.828     -127442.33      4759.7086      296.78024    
     95000  -29782.932      4712.4827      92801.448     -127441.84      4857.4616      297.78495    
     95500  -29879.225      4688.8657      92579.236     -127441.46      4983.0013      296.29257    
     96000  -29668.998      4766.0078      92838.726     -127440.63      4932.9033      301.16724    
     96500  -29696.175      4766.1243      92842.98      -127447.87      4908.7133      301.1746     
     97000  -29580.061      4830.8852      92928.215     -127447.01      4938.7352      305.26688    
     97500  -29895.135      4747.4082      92498.984     -127449.61      5055.4879      299.99191    
     98000  -29854.949      4811.1092      92746.522     -127451.48      4850.0037      304.01722    
     98500  -29689.976      4781.1216      92899.083     -127449.55      4860.4939      302.12229    
     99000  -29830.28       4656.5887      92724.366     -127440.09      4885.4483      294.25297    
     99500  -29774.828      4723.8542      92846.434     -127446.04      4824.7822      298.50352    
    100000  -29626.826      4727.9187      93032.19      -127443.38      4784.3653      298.76036    
    100500  -29684.438      4697.4183      92870.086     -127444.47      4889.9488      296.83302    
    101000  -29807.431      4727.3341      92799.377     -127449.74      4842.936       298.72342    
    101500  -29941.96       4761.3517      92548.589     -127448.11      4957.5621      300.87301    
    102000  -29743.794      4763.6914      92887.737     -127447.86      4816.325       301.02086    
    102500  -29770.708      4811.7523      92770.224     -127444.89      4903.9553      304.05786    
    103000  -29634.681      4765.3711      93110.988     -127446         4700.3354      301.127      
    103500  -29758.934      4697.7673      92642.683     -127443.86      5042.2446      296.85507    
    104000  -29868.03       4796.7037      92658.589     -127443.2       4916.5784      303.10693    
    104500  -29605.909      4732.0707      92880.467     -127449.54      4963.1651      299.02273    
    105000  -29771.924      4791.1807      92935.821     -127445.24      4737.4934      302.75792    
    105500  -29753.45       4745.0571      92702.788     -127446.47      4990.2333      299.84335    
    106000  -29840.297      4738.7833      92724.463     -127443.45      4878.6894      299.4469     
    106500  -29793.491      4733.6256      92808.329     -127454.08      4852.2626      299.12098    
    107000  -29862.712      4653.0463      92811.281     -127452.26      4778.2705      294.02912    
    107500  -29889.079      4719.9351      92701.94      -127438.53      4847.5125      298.25587    
    108000  -29802.128      4732.4459      92602.927     -127444.16      5039.1096      299.04644    
    108500  -29780.899      4835.4209      92671.455     -127441.01      4988.657       305.5535     
    109000  -29893.493      4823.4648      92595.636     -127439.25      4950.1184      304.79798    
    109500  -29826.85       4764.3657      92655.015     -127436.01      4954.1469      301.06347    
    110000  -29730.366      4749.7761      92796.172     -127448.9       4922.3586      300.14154    
    110500  -29714.92       4750.4035      92982.785     -127447.04      4749.3309      300.18119    
    111000  -29837.536      4704.8846      92727.974     -127444.38      4878.8742      297.30482    
    111500  -29856.087      4746.7135      92723.005     -127451.97      4872.8801      299.94801    
    112000  -29900.214      4728.9768      92531.358     -127443.37      5011.7977      298.82722    
    112500  -29710.446      4749.1137      92838.309     -127448.15      4899.3988      300.09969    
    113000  -29904.347      4754.8641      92603.553     -127452.82      4944.9234      300.46306    
    113500  -29841.625      4697.2882      92913.923     -127449.29      4693.737       296.8248     
    114000  -29717.868      4641.3487      92820.858     -127446.07      4907.3439      293.28994    
    114500  -29854.076      4803.3793      92570.835     -127445.09      5020.1833      303.52876    
    115000  -29885.688      4706.9249      92750.551     -127447.66      4811.4249      297.43375    
    115500  -29783.575      4837.0631      92806.22      -127441.42      4851.6226      305.65727    
    116000  -29707.573      4661.7054      92944.036     -127444.98      4793.3715      294.5763     
    116500  -29803.934      4816.4187      92709.981     -127443.91      4929.9996      304.35274    
    117000  -29841.898      4800.0831      92401.579     -127444.94      5201.4677      303.32048    
    117500  -29815.085      4709.7263      92812.297     -127455.35      4827.9715      297.61077    
    118000  -29618.6        4634.6371      93022.005     -127444.81      4804.2045      292.86583    
    118500  -29726.625      4719.5001      92842.383     -127449.94      4880.9355      298.22838    
    119000  -29691.905      4745.1347      93002.051     -127452.4       4758.4451      299.84825    
    119500  -29840.382      4776.7719      92788.11      -127452.43      4823.9356      301.84742    
    120000  -29929.288      4805.675       92527.385     -127445.47      4988.7958      303.67383    
    120500  -29771.611      4793.8452      92875.712     -127453.86      4806.5335      302.9263     
    121000  -29884.536      4670.8204      92590.544     -127450.26      4975.1787      295.15228    
    121500  -29762.415      4685.8303      92886.055     -127450.34      4801.8739      296.10077    
    122000  -29762.906      4674.1441      92974.047     -127447.28      4710.331       295.36231    
    122500  -29824.016      4808.5649      92730.752     -127448.21      4893.4442      303.85645    
    123000  -29753.6        4748.6281      92761.69      -127452.23      4936.9399      300.069      
    123500  -29875.858      4682.5347      92523.459     -127456.19      5056.8725      295.89251    
    124000  -29782.732      4951.5433      92859.163     -127444.46      4802.5628      312.89135    
    124500  -29674.486      4783.0436      93028.75      -127448.94      4745.7034      302.24374    
    125000  -29731.183      4828.5131      92970.992     -127452.89      4750.7182      305.11698    
    125500  -29732.955      4760.635       92979.665     -127452.66      4740.0437      300.82773    
    126000  -29550.416      4691.4489      93159.094     -127443.49      4733.9795      296.45581    
    126500  -29679.406      4697.1744      92966.789     -127446.62      4800.4268      296.81761    
    127000  -29779.13       4712.5197      92778.509     -127438.53      4880.8914      297.78729    
    127500  -29806.499      4705.9023      92626.509     -127437.79      5004.7786      297.36913    
    128000  -29709.654      4790.5716      92882.364     -127446.68      4854.6631      302.71944    
    128500  -29821.976      4689.9081      92659.775     -127443.81      4962.0544      296.35845    
    129000  -29665.429      4752.9924      92999.145     -127442.67      4778.0946      300.34478    
    129500  -29816.321      4783.2841      92641.087     -127450.65      4993.2372      302.25894    
    130000  -29733.667      4741.9607      92806.82      -127444.18      4903.6934      299.64768    
    130500  -29894.485      4754.9008      92632.434     -127447.71      4920.7856      300.46538    
    131000  -29791.034      4797.964       92822.627     -127449.42      4835.762       303.18657    
    131500  -29846.787      4781.363       92607.574     -127448.15      4993.7893      302.13754    
    132000  -29695.575      4744.2415      92864.49      -127445.64      4885.5709      299.79181    
    132500  -29749.197      4716.0493      92683.594     -127440.05      5007.2614      298.01033    
    133000  -29901.15       4814.984       92611.475     -127443.19      4930.5675      304.26207    
    133500  -29832.787      4623.9465      92657.092     -127444.6       4954.7243      292.19028    
    134000  -29803.082      4658.4872      92619.455     -127446.51      5023.9717      294.37294    
    134500  -29842.814      4821.9754      92773.162     -127440.66      4824.682       304.70386    
    135000  -29793.887      4770.2804      92744.894     -127444.83      4906.0529      301.43722    
    135500  -29907.905      4814.4217      92510.219     -127453.06      5034.9381      304.22654    
    136000  -29860.143      4760.4582      92607.063     -127448.66      4981.4509      300.81655    
    136500  -29657.754      4775.3288      93024.64      -127446.55      4764.1598      301.75624    
    137000  -29576.238      4761.6756      93109.997     -127447         4760.7684      300.89348    
    137500  -29764.163      4783.5807      92686.235     -127448.62      4998.2243      302.27768    
    138000  -29696.9        4695.827       92770.609     -127449.78      4982.2681      296.73246    
    138500  -29788.997      4722.601       92664.559     -127447.84      4994.2864      298.42433    
    139000  -29760.733      4792.4237      92724.061     -127444.96      4960.169       302.83647    
    139500  -29720.327      4725.6171      92835.292     -127450.69      4895.0712      298.61492    
    140000  -29839.937      4781.6026      92785.607     -127441.43      4815.8847      302.15268    
    140500  -29844.791      4734.4559      92699.456     -127448.74      4904.4887      299.17345    
    141000  -29719.409      4738.8826      92793.213     -127447.54      4934.9159      299.45317    
    141500  -29827.571      4687.014       92793.8       -127450.79      4829.421       296.17556    
    142000  -29879.991      4672.7959      92667.227     -127450.65      4903.4283      295.27711    
    142500  -29776.267      4740.7176      92735.912     -127446.51      4934.3319      299.56913    
    143000  -29647.765      4720.8573      92997.985     -127437.91      4792.1556      298.31415    
    143500  -29677.322      4752.3666      92895.943     -127450.03      4876.7604      300.30524    
    144000  -29508.287      4719.3493      93229.888     -127448.53      4710.356       298.21886    
    144500  -29635.84       4765.458       92815.329     -127439.33      4988.1596      301.13249    
    145000  -29801.654      4771.5218      92856.181     -127450.02      4792.1857      301.51567    
    145500  -29785.078      4743.3387      92868.355     -127445.16      4791.7227      299.73476    
    146000  -29661.333      4803.8658      92905.421     -127444.7       4877.9445      303.55951    
    146500  -29640.636      4684.9209      92995.071     -127447.97      4812.2632      296.0433     
    147000  -29862.82       4782.9715      92837.654     -127455.15      4754.6771      302.23918    
    147500  -29786.513      4781.4853      92879.715     -127447.92      4781.6941      302.14527    
    148000  -29693.566      4792.678       92725.236     -127448.77      5029.964       302.85255    
    148500  -29768.944      4681.3747      92802.021     -127444.05      4873.0875      295.81921    
    149000  -29782.679      4712.007       92724.866     -127447.88      4940.3316      297.75489    
    149500  -29617.784      4788.3766      92994.658     -127451.61      4839.1703      302.58073    
    150000  -29680.342      4697.745       93001.194     -127448.05      4766.5138      296.85366    
    150500  -29775.565      4797.5802      92829.701     -127443.67      4838.403       303.16232    
    151000  -29669.055      4774.6383      92849.301     -127444.62      4926.2645      301.7126     
    151500  -29819.575      4748.3244      92640.13      -127446.43      4986.7301      300.04981    
    152000  -29748.594      4844.8651      93003.944     -127451.21      4698.6675      306.15028    
    152500  -29759.974      4736.55        92795.833     -127445.77      4889.9667      299.30578    
    153000  -29760.051      4711.2709      92896.202     -127443.71      4787.4566      297.70837    
    153500  -29871.379      4694.1466      92616.618     -127445.47      4957.4726      296.62628    
    154000  -29757.594      4811.4231      92824.28      -127450.93      4869.0567      304.03706    
    154500  -29719.338      4743.8456      92712.768     -127446.08      5013.971       299.76679    
    155000  -29851.524      4700.9272      92764.698     -127451.23      4835.005       297.05475    
    155500  -29803.842      4672.5513      92741.199     -127445.99      4900.9455      295.26166    
    156000  -29510.637      4842.5376      93019.65      -127439.71      4909.4197      306.0032     
    156500  -29779.987      4692.3558      92686.648     -127447.81      4981.1705      296.51312    
    157000  -29715.339      4693.2533      92792.385     -127443.61      4935.8875      296.56983    
    157500  -29792.024      4655.1648      92746.432     -127449.35      4910.8987      294.16299    
    158000  -29784.186      4739.4998      92717.595     -127450.84      4949.0556      299.49218    
    158500  -29809.311      4742.3271      92728.931     -127448.1       4909.8574      299.67083    
    159000  -29824.786      4803.8214      92693.562     -127440.7       4922.3513      303.5567     
    159500  -29702.025      4647.0327      92752.767     -127446.07      4991.2807      293.64912    
    160000  -29742.544      4692.8434      92876.635     -127446.55      4827.3693      296.54393    
    160500  -29896.753      4713.476       92734.653     -127451.45      4820.0473      297.84772    
    161000  -29719.792      4714.0847      92890.331     -127436.09      4825.9664      297.88618    
    161500  -29799.49       4795.8303      92773.585     -127441.36      4868.2862      303.05174    
    162000  -29964.514      4834.2715      92439.318     -127439.03      5035.1934      305.48086    
    162500  -29827.107      4722.5772      92763.219     -127445.55      4855.2258      298.42283    
    163000  -29847.313      4813.769       92635.949     -127440.6       4957.337       304.18529    
    163500  -29738.563      4762.1702      92795.287     -127445.64      4911.7904      300.92473    
    164000  -29899.728      4682.8066      92553.919     -127448.3       4994.6565      295.90969    
    164500  -29778.494      4618.8488      92722.671     -127445.31      4944.1464      291.86816    
    165000  -29757.493      4812.1914      92816.445     -127447.17      4873.2293      304.08561    
    165500  -29751.649      4712.4618      92978.232     -127453.48      4723.5961      297.78362    
    166000  -29617.127      4835.857       93138.415     -127444.31      4688.7701      305.58105    
    166500  -29883.417      4754.2709      92525.511     -127446.65      5037.7211      300.42557    
    167000  -29858.415      4670.3031      92653.682     -127445.58      4933.4808      295.11959    
    167500  -29872.648      4727.1466      92723.723     -127446.55      4850.1783      298.71157    
    168000  -29864.176      4826.0163      92583.226     -127446.11      4998.7069      304.95921    
    168500  -29803.312      4819.9965      92753.117     -127443.59      4887.1649      304.57882    
    169000  -29808.738      4734.5649      92752.223     -127447.06      4886.0984      299.18034    
    169500  -29898.039      4819.9232      92653.562     -127444.86      4893.2571      304.57419    
    170000  -29780.239      4740.1845      92781.842     -127445.95      4883.8696      299.53545    
    170500  -29846.829      4706.0991      92682.541     -127446.04      4916.6727      297.38157    
    171000  -29717.599      4727.8996      92701.634     -127443.65      5024.4137      298.75915    
    171500  -29800.896      4714.8933      92713.39      -127439.87      4925.5825      297.93727    
    172000  -29882.009      4732.6634      92498.983     -127446.04      5065.0461      299.06018    
    172500  -29839.91       4654.876       92574.696     -127445.62      5031.0103      294.14474    
    173000  -29802.489      4811.8849      92776.151     -127441.25      4862.6114      304.06624    
    173500  -29814.3        4798.7518      92626.665     -127446.67      5005.7062      303.23635    
    174000  -29691.329      4799.588       93088.634     -127447.79      4667.8298      303.28919    
    174500  -29844.69       4765.8477      92554.001     -127446.25      5047.5623      301.15712    
    175000  -29817.61       4760.6912      92800.362     -127455.6       4837.6264      300.83128    
    175500  -29770.185      4805.0639      92599.551     -127437.01      5067.2705      303.63522    
    176000  -29885.227      4653.8179      92654.518     -127447.29      4907.548       294.07788    
    176500  -29776.839      4806.2713      92805.861     -127447.55      4864.8461      303.71151    
    177000  -29789.322      4779.2734      92889.103     -127446.14      4767.7155      302.0055     
    177500  -29628.925      4751.872       92917.137     -127438         4891.9395      300.27399    
    178000  -29686.507      4727.5082      92806.304     -127439.45      4946.6368      298.73442    
    178500  -29879.272      4813.0268      92675.985     -127447.38      4892.1276      304.1384     
    179000  -29818.53       4762.9895      92482.96      -127443.42      5141.9334      300.97651    
    179500  -29777.037      4752.5855      92900.242     -127453         4775.7231      300.31907    
    180000  -29804.568      4823.7519      92760.3       -127451.51      4886.6467      304.81612    
    180500  -29741.3        4687.2497      92880.017     -127446.36      4825.0402      296.19046    
    181000  -29761.507      4797.3545      92618.05      -127446.74      5067.1805      303.14805    
    181500  -29742.716      4751.8396      92814.106     -127443.73      4886.9078      300.27194    
    182000  -29656.385      4742.1102      92863.465     -127442.34      4922.4884      299.65713    
    182500  -29852.928      4785.6001      92644.708     -127447.74      4950.1094      302.40528    
    183000  -29717.88       4630.9419      92790.354     -127445.94      4937.7092      292.63233    
    183500  -29822.823      4712.854       92654.918     -127444.27      4966.5296      297.80841    
    184000  -29735.07       4773.9829      92976.823     -127453.47      4741.5799      301.67119    
    184500  -29794.641      4705.2298      92678.966     -127440.79      4967.1876      297.32663    
    185000  -29762.115      4706.695       92782.277     -127439.25      4894.8583      297.41922    
    185500  -29806.398      4772.479       92798.08      -127438.12      4833.6475      301.57616    
    186000  -29605.027      4765.0318      92957.471     -127443.86      4881.3615      301.10556    
    186500  -29750.98       4729.4166      92575.328     -127443.94      5117.6293      298.85501    
    187000  -29713.359      4705.1975      93003.697     -127444.1       4727.0473      297.32459    
    187500  -29849.431      4739.2703      92647.926     -127456.06      4958.7031      299.47767    
    188000  -29770.806      4680.7586      92605.208     -127449.83      5073.8194      295.78028    
    188500  -29867.217      4797.0015      92584.887     -127451.13      4999.0303      303.12575    
    189000  -29848.071      4734.1389      92619.428     -127453.14      4985.6439      299.15342    
    189500  -29672.337      4731.708       92966.856     -127451.8       4812.6119      298.99981    
    190000  -29805.154      4707.5901      92800.129     -127443.38      4838.0931      297.47578    
    190500  -29670.047      4782.4875      92955.206     -127446.11      4820.8572      302.2086     
    191000  -29818.197      4705.467       92686.699     -127447.01      4942.1173      297.34162    
    191500  -29811.606      4803.3751      92728.5       -127443.46      4903.359       303.5285     
    192000  -29774.684      4654.65        92864.14      -127445.25      4806.4309      294.13046    
    192500  -29748.796      4716.6192      92817.452     -127439.04      4872.7923      298.04634    
    193000  -29812.897      4841.4622      92725.777     -127439.38      4900.705       305.93525    
    193500  -29835.818      4709.8877      92771.14      -127445.2       4838.2419      297.62097    
    194000  -29638.863      4721.2738      93063.116     -127447.06      4745.0805      298.34047    
    194500  -29880.697      4741.1103      92611.392     -127449         4956.9079      299.59394    
    195000  -29780.427      4706.2945      92763.224     -127446.04      4902.3903      297.39391    
    195500  -29802.131      4777.9947      92851.226     -127446.24      4792.8838      301.9247     
    196000  -29726.241      4764.4954      93012.81      -127448.34      4709.2877      301.07167    
    196500  -29906.269      4768.311       92616.27      -127447.99      4925.4553      301.31277    
    197000  -29862.943      4760.0811      92465.38      -127444.52      5116.1989      300.79272    
    197500  -29754.58       4759.8723      92849.729     -127454.7       4850.3946      300.77953    
    198000  -29684.585      4740.2031      93000.026     -127440.82      4756.2094      299.53662    
    198500  -29891.137      4736.5562      92644.506     -127451.55      4915.9049      299.30617    
    199000  -29644.441      4760.6382      93013.881     -127439.71      4781.3906      300.82793    
    199500  -29703.041      4762.211       92891.118     -127442.4       4848.2372      300.92732    
    200000  -29765.05       4731.942       92823.547     -127450.95      4862.3512      299.01459    
    200500  -29859.327      4791.6556      92575.568     -127447.3       5012.4039      302.78794    
    201000  -29721.409      4779.0979      92974.651     -127454.45      4758.3946      301.99441    
    201500  -29720.17       4738.8658      92718.24      -127438.12      4999.7083      299.45211    
    202000  -29695.084      4865.9911      92955.543     -127444.88      4794.2484      307.48525    
    202500  -29721.995      4755.9686      92831.627     -127441.8       4888.1796      300.53285    
    203000  -29766.366      4762.6486      92672.726     -127449.52      5010.4232      300.95496    
    203500  -29697.203      4728.9431      92927.834     -127452.26      4827.2187      298.82509    
    204000  -29856.001      4768.1993      92812.366     -127455.28      4786.9144      301.30572    
    204500  -29868.5        4842.2229      92665.575     -127449.93      4915.8598      305.98332    
    205000  -29843.077      4810.0911      92641.134     -127445.9       4961.6928      303.95289    
    205500  -29884.183      4751.5456      92692.248     -127445.28      4868.8512      300.25336    
    206000  -29871.557      4723.5569      92720.354     -127447.47      4855.5619      298.48474    
    206500  -29803.248      4795.7328      92827.718     -127446.94      4815.9771      303.04558    
    207000  -30040.741      4698.7369      92404.739     -127451.24      5005.7554      296.91634    
    207500  -29780.512      4794.2007      92888.626     -127445.57      4776.4359      302.94876    
    208000  -29859.129      4825.2872      92733.107     -127439.86      4847.6285      304.91314    
    208500  -29928.995      4711.926       92564.67      -127442.69      4949.0223      297.74977    
    209000  -29831.188      4685.8513      92752.051     -127453.27      4870.0267      296.10209    
    209500  -29914.718      4813.9461      92622.432     -127448.02      4910.8736      304.19649    
    210000  -29857.593      4791.6397      92690.796     -127445.04      4896.6496      302.78693    
    210500  -29862.825      4703.6014      92688.358     -127454.2       4903.0214      297.22373    
    211000  -29646.694      4744.7222      92933.058     -127453.27      4873.5155      299.82218    
    211500  -29839.42       4771.3165      92602.57      -127442.65      5000.6631      301.50269    
    212000  -29994.257      4749.3656      92513.912     -127449.95      4941.777       300.1156     
    212500  -29809.747      4699.0922      92576.945     -127447.18      5060.4924      296.93879    
    213000  -29827.061      4753.6227      92757.893     -127450.99      4866.0396      300.38461    
    213500  -29847.306      4785.2657      92683.418     -127449.42      4918.7003      302.38415    
    214000  -29669.054      4882.7304      92978.723     -127445.24      4797.4604      308.54301    
    214500  -29843.289      4712.2403      92636.806     -127441.56      4961.4606      297.76963    
    215000  -29794.4        4773.3646      92565.14      -127449.12      5089.575       301.63211    
    215500  -29801.058      4807.4775      92637.696     -127448.02      5009.2699      303.78773    
    216000  -29651.311      4724.2698      93029.659     -127443.52      4762.552       298.52978    
    216500  -29805.397      4787.6071      92794.38      -127449.1       4849.3243      302.53211    
    217000  -29755.828      4713.6864      92847.155     -127443.58      4840.5961      297.86101    
    217500  -29722.506      4640.6223      92759.554     -127440.23      4958.1705      293.24404    
    218000  -29746.438      4733.3235      92844.816     -127443.68      4852.4313      299.10189    
    218500  -29680.362      4750.8372      92955.077     -127439.48      4804.0423      300.20859    
    219000  -29764.233      4751.0745      92766.796     -127442.26      4911.2332      300.22359    
    219500  -29772.721      4794.5818      92833.805     -127446.58      4840.0549      302.97285    
    220000  -29736.285      4705.44        92879.546     -127442.57      4826.7353      297.33992    
Loop time of 5592.48 on 30 procs for 200000 steps with 9401 atoms

Performance: 6.180 ns/day, 3.884 hours/ns, 35.762 timesteps/s, 336.201 katom-step/s
94.1% CPU use with 30 MPI tasks x 1 OpenMP threads

MPI task timing breakdown:
Section |  min time  |  avg time  |  max time  |%varavg| %total
---------------------------------------------------------------
Pair    | 472.01     | 1037.8     | 1352.7     | 817.5 | 18.56
Bond    | 0.11995    | 0.24015    | 0.30523    |   9.5 |  0.00
Kspace  | 1390.3     | 1705.6     | 2275.3     | 637.4 | 30.50
Neigh   | 407.01     | 409.78     | 412.63     |   6.9 |  7.33
Comm    | 144.66     | 165.07     | 183.3      |  68.9 |  2.95
Output  | 5.8859     | 7.8287     | 9.7431     |  41.3 |  0.14
Modify  | 2247.7     | 2257.8     | 2268.6     |  10.2 | 40.37
Other   |            | 8.34       |            |       |  0.15

Nlocal:        313.367 ave         367 max         277 min
Histogram: 5 5 8 0 0 0 3 5 2 2
Nghost:        7668.37 ave        9344 max        6008 min
Histogram: 12 0 0 0 0 0 0 12 0 6
Neighs:         212942 ave      262195 max      120881 min
Histogram: 5 1 0 0 0 0 2 11 7 4

Total # of neighbors = 6388257
Ave neighs/atom = 679.52952
Ave special neighs/atom = 1.6919477
Neighbor list builds = 19300
Dangerous builds = 13191
    #write_data structure.data
    undump alldump
    next l
    unfix conp2
    jump SELF loop_start
    variable l_tf equal ${l}/2
    variable l_tf equal 5/2
    # fix id group1 electrode/conp psi1 eta couple group2 psi2 write_inv
    # fix conp1 lower electrode/conp 0.0 5 couple upper 0.0 write_inv inv.out etypes 1*6 # Write call to not have to determine the matrix twice
    fix conp1 lower electrode/conp 0.0 2.925 couple upper 0.0# Write call to not have to determine the matrix twice
1440 atoms in group conp_group
    fix_modify conp1 tf 1 ${l_tf} ${d}
    fix_modify conp1 tf 1 2.5 ${d}
    fix_modify conp1 tf 1 2.5 6.81038626666667
    fix_modify conp1 tf 6 ${l_tf} ${d}
    fix_modify conp1 tf 6 2.5 ${d}
    fix_modify conp1 tf 6 2.5 6.81038626666667
    # fix conp1 lower electrode/conp 0.0 5 couple upper 0.0 read_inv inv.out # Write call to not have to determine the matrix twice

    # ======== equilibrate for ? ns ========
    reset_timestep 0
    thermo 50
    # dump equilxtc h2o xtc 50 equil.xtc
    run 500 # 1 ps, ~ correlation time of spce water
PPPM/electrode initialization ...
  using 12-bit tables for long-range coulomb (src/kspace.cpp:342)
  G vector (1/distance) = 0.2378332
  grid = 40 45 100
  stencil order = 5
  estimated absolute RMS force accuracy = 0.00036351997
  estimated relative force accuracy = 1.0947296e-06
  using double precision FFTW3
  3d grid and FFT values/proc = 45144 22200
Generated 15 of 15 mixed pair_coeff terms from arithmetic mixing rule
WARNING: Neighbor exclusions used with KSpace solver may give inconsistent Coulombic energies (src/neighbor.cpp:654)
Neighbor list info ...
  update: every = 1 steps, delay = 10 steps, check = yes
  max neighbors/atom: 2000, page size: 100000
  master list distance cutoff = 16
  ghost atom cutoff = 16
  binsize = 8, bins = 6 6 7
  2 neighbor lists, perpetual/occasional/extra = 2 0 0
  (1) pair lj/cut/coul/long, perpetual
      attributes: half, newton on
      pair build: half/bin/newton
      stencil: half/bin/3d
      bin: standard
  (2) fix electrode/conp, perpetual, copy from (1)
      attributes: half, newton on
      pair build: copy
      stencil: none
      bin: none
Per MPI rank memory allocation (min/avg/max) = 27.35 | 27.86 | 29.57 Mbytes
   Step         PotEng         KinEng         E_coul         E_long         E_vdwl      c_watertemp  
         0  -29731.055      4705.44        92882.086     -127439.88      4826.7353      297.33992    
        50  -29766.17       4784.3846      92888.413     -127441.68      4787.097       302.32848    
       100  -29701.941      4759.0415      93020.846     -127443.8       4721.0159      300.72703    
       150  -29711.993      4792.2765      92946.211     -127443.01      4784.8027      302.82717    
       200  -29659.096      4735.8151      92921.802     -127446.06      4865.1592      299.25934    
       250  -29686.412      4734.5797      92823.319     -127448.07      4938.3336      299.18127    
       300  -29701.871      4701.6645      92999.621     -127442.73      4741.2349      297.10134    
       350  -29860.764      4786.8885      92649.564     -127450.4       4940.0706      302.4867     
       400  -29814.584      4652.3948      92672.641     -127448.45      4961.2239      293.98795    
       450  -29944.484      4752.5114      92514.679     -127453.54      4994.3737      300.31439    
       500  -29968.424      4771.4327      92612.983     -127450.11      4868.7014      301.51004    
Loop time of 14.5133 on 30 procs for 500 steps with 9401 atoms

Performance: 5.953 ns/day, 4.031 hours/ns, 34.451 timesteps/s, 323.876 katom-step/s
94.3% CPU use with 30 MPI tasks x 1 OpenMP threads

MPI task timing breakdown:
Section |  min time  |  avg time  |  max time  |%varavg| %total
---------------------------------------------------------------
Pair    | 1.1813     | 2.6785     | 3.6007     |  48.4 | 18.46
Bond    | 0.00030703 | 0.00064776 | 0.00093493 |   0.0 |  0.00
Kspace  | 3.6079     | 4.5392     | 6.0465     |  37.3 | 31.28
Neigh   | 1.0409     | 1.047      | 1.0564     |   0.4 |  7.21
Comm    | 0.38404    | 0.44004    | 0.48188    |   3.8 |  3.03
Output  | 0.001065   | 0.0010916  | 0.0014535  |   0.2 |  0.01
Modify  | 5.7523     | 5.7855     | 5.8138     |   0.7 | 39.86
Other   |            | 0.0213     |            |       |  0.15

Nlocal:        313.367 ave         371 max         281 min
Histogram: 10 5 3 0 0 1 4 4 2 1
Nghost:         7663.1 ave        9384 max        6027 min
Histogram: 12 0 0 0 0 0 0 12 0 6
Neighs:         213027 ave      263094 max      116389 min
Histogram: 4 2 0 0 0 0 3 11 5 5

Total # of neighbors = 6390820
Ave neighs/atom = 679.80215
Ave special neighs/atom = 1.6919477
Neighbor list builds = 48
Dangerous builds = 34

    write_dump solvent xyz water_ions.xyz
    write_data equilibrated_structure.data
System init for write_data ...
PPPM/electrode initialization ...
  using 12-bit tables for long-range coulomb (src/kspace.cpp:342)
  G vector (1/distance) = 0.2378332
  grid = 40 45 100
  stencil order = 5
  estimated absolute RMS force accuracy = 0.0003635187
  estimated relative force accuracy = 1.0947258e-06
  using double precision FFTW3
  3d grid and FFT values/proc = 45144 22200
Generated 15 of 15 mixed pair_coeff terms from arithmetic mixing rule
WARNING: Neighbor exclusions used with KSpace solver may give inconsistent Coulombic energies (src/neighbor.cpp:654)

    ## ======== production run ========


    reset_timestep 0
    # Dump to also show the changing charge of the walls
    dump alldump all custom 50 wallcharge_${l_tf}.lammpstrj id type x y z q
    dump alldump all custom 50 wallcharge_2.5.lammpstrj id type x y z q
    thermo 500 # frequency log file
    #
    variable doutx equal 50 # 0.1ps
    #
    #dump xtc all xtc ${doutx} traj.xtc
    run 20000
PPPM/electrode initialization ...
  using 12-bit tables for long-range coulomb (src/kspace.cpp:342)
  G vector (1/distance) = 0.2378332
  grid = 40 45 100
  stencil order = 5
  estimated absolute RMS force accuracy = 0.0003635187
  estimated relative force accuracy = 1.0947258e-06
  using double precision FFTW3
  3d grid and FFT values/proc = 45144 22200
Generated 15 of 15 mixed pair_coeff terms from arithmetic mixing rule
WARNING: Neighbor exclusions used with KSpace solver may give inconsistent Coulombic energies (src/neighbor.cpp:654)
Per MPI rank memory allocation (min/avg/max) = 27.35 | 27.86 | 29.57 Mbytes
   Step         PotEng         KinEng         E_coul         E_long         E_vdwl      c_watertemp  
         0  -29968.424      4771.4327      92612.979     -127450.1       4868.7014      301.51004    
       500  -29853.397      4600.8262      92711.1       -127450.87      4886.3724      290.7293     
      1000  -29825.289      4764.3574      92700.167     -127447.67      4922.2115      301.06295    
      1500  -29725.231      4738.1065      92947.932     -127450.02      4776.8538      299.40413    
      2000  -29716.319      4810.2535      92863.908     -127446.26      4866.0285      303.96315    
      2500  -29880.38       4738.7029      92582.657     -127450.31      4987.2716      299.44182    
      3000  -29803.519      4817.0808      92582.469     -127455.27      5069.2819      304.39457    
      3500  -29810.793      4774.071       92852.582     -127447.79      4784.4129      301.67676    
      4000  -29866.114      4725.2905      92721.791     -127452.22      4864.3095      298.59428    
      4500  -29845.746      4752.0616      92684.625     -127449.86      4919.487       300.28596    
      5000  -29760.85       4851.8329      92877.01      -127449.09      4811.2314      306.59058    
      5500  -29721.719      4761.2642      92675.519     -127448.23      5050.9964      300.86748    
      6000  -29875.59       4837.0457      92652.528     -127451         4922.88        305.65616    
      6500  -29861.84       4753.1851      92700.565     -127450         4887.5954      300.35696    
      7000  -29743.7        4744.3634      92770.349     -127445.07      4931.0205      299.79951    
      7500  -29775.518      4746.5011      92732.73      -127437.07      4928.8177      299.93459    
      8000  -29776.456      4743.3954      92855.251     -127457.44      4825.7313      299.73835    
      8500  -29743.037      4721.6462      92823.981     -127455.01      4887.9904      298.36399    
      9000  -29731.334      4775.8695      92857.647     -127444.02      4855.0421      301.7904     
      9500  -30008.476      4711.2417      92439.069     -127449.56      5002.0139      297.70653    
     10000  -29805.175      4730.7255      92716.562     -127448.3       4926.5585      298.93772    
     10500  -29761.326      4700.7833      92880.066     -127449.02      4807.6316      297.04566    
     11000  -29759.324      4802.9599      93001.981     -127440.3       4678.9916      303.50226    
     11500  -29840.482      4752.4383      92602.784     -127446.21      5002.9396      300.30977    
     12000  -29711.142      4816.5056      92886.652     -127445.56      4847.7679      304.35822    
     12500  -29719.627      4660.5594      92909.452     -127446.33      4817.2478      294.50388    
     13000  -29748.019      4742.8847      92808.069     -127447.49      4891.3974      299.70607    
     13500  -29938.507      4733.3716      92637.707     -127449.33      4873.117       299.10493    
     14000  -29685.596      4723.9802      93008.851     -127454.53      4760.0802      298.51149    
     14500  -29803.308      4730.0047      92701.758     -127452.22      4947.1579      298.89218    
     15000  -29775.403      4706.3456      92827.673     -127447.31      4844.2304      297.39714    
     15500  -29777.7        4645.3988      92770.219     -127453.13      4905.2067      293.54587    
     16000  -29698.813      4742.38        92819.887     -127449.4       4930.6958      299.67418    
     16500  -29680.925      4792.4759      92824.518     -127444.45      4939.0055      302.83977    
     17000  -29760.7        4755.0833      92828.118     -127453.11      4864.2893      300.47691    
     17500  -29676.724      4670.0652      93020.678     -127443.66      4746.2559      295.10456    
     18000  -29738.646      4826.5417      92790.476     -127451.17      4922.0509      304.99241    
     18500  -29829.836      4826.3442      92634.264     -127443.54      4979.4356      304.97993    
     19000  -29837.408      4764.3155      92727.555     -127450.42      4885.4562      301.0603     
     19500  -29878.395      4758.5118      92765.259     -127453.23      4809.5747      300.69356    
     20000  -29639.521      4744.0895      92914.323     -127445.58      4891.7333      299.7822     
Loop time of 556.695 on 30 procs for 20000 steps with 9401 atoms

Performance: 6.208 ns/day, 3.866 hours/ns, 35.926 timesteps/s, 337.743 katom-step/s
94.2% CPU use with 30 MPI tasks x 1 OpenMP threads

MPI task timing breakdown:
Section |  min time  |  avg time  |  max time  |%varavg| %total
---------------------------------------------------------------
Pair    | 46.113     | 99.936     | 138.99     | 252.0 | 17.95
Bond    | 0.012892   | 0.024432   | 0.037817   |   3.9 |  0.00
Kspace  | 136.22     | 175.64     | 228.74     | 190.9 | 31.55
Neigh   | 38.789     | 39.067     | 39.472     |   2.7 |  7.02
Comm    | 14.436     | 17.017     | 19.32      |  28.2 |  3.06
Output  | 0.55267    | 0.74699    | 0.94812    |  14.0 |  0.13
Modify  | 221.98     | 223.43     | 224.9      |   4.5 | 40.14
Other   |            | 0.833      |            |       |  0.15

Nlocal:        313.367 ave         365 max         274 min
Histogram: 6 3 5 4 0 1 2 3 5 1
Nghost:        7702.03 ave        9487 max        5971 min
Histogram: 12 0 0 0 0 0 3 9 0 6
Neighs:         213785 ave      257906 max      119685 min
Histogram: 4 2 0 0 0 0 2 7 6 9

Total # of neighbors = 6413546
Ave neighs/atom = 682.21955
Ave special neighs/atom = 1.6919477
Neighbor list builds = 1929
Dangerous builds = 1301
    unfix conp1
    fix conp2 lower electrode/conp 0.5 2.925 couple upper -0.5
1440 atoms in group conp_group
    fix_modify conp2 tf 1 ${l_tf} ${d}
    fix_modify conp2 tf 1 2.5 ${d}
    fix_modify conp2 tf 1 2.5 6.81038626666667
    fix_modify conp2 tf 6 ${l_tf} ${d}
    fix_modify conp2 tf 6 2.5 ${d}
    fix_modify conp2 tf 6 2.5 6.81038626666667
    run         200000 # 400 ps
PPPM/electrode initialization ...
  using 12-bit tables for long-range coulomb (src/kspace.cpp:342)
  G vector (1/distance) = 0.2378332
  grid = 40 45 100
  stencil order = 5
  estimated absolute RMS force accuracy = 0.00036351863
  estimated relative force accuracy = 1.0947256e-06
  using double precision FFTW3
  3d grid and FFT values/proc = 45144 22200
Generated 15 of 15 mixed pair_coeff terms from arithmetic mixing rule
WARNING: Neighbor exclusions used with KSpace solver may give inconsistent Coulombic energies (src/neighbor.cpp:654)
Neighbor list info ...
  update: every = 1 steps, delay = 10 steps, check = yes
  max neighbors/atom: 2000, page size: 100000
  master list distance cutoff = 16
  ghost atom cutoff = 16
  binsize = 8, bins = 6 6 7
  2 neighbor lists, perpetual/occasional/extra = 2 0 0
  (1) pair lj/cut/coul/long, perpetual
      attributes: half, newton on
      pair build: half/bin/newton
      stencil: half/bin/3d
      bin: standard
  (2) fix electrode/conp, perpetual, copy from (1)
      attributes: half, newton on
      pair build: copy
      stencil: none
      bin: none
Per MPI rank memory allocation (min/avg/max) = 28.61 | 29.13 | 30.84 Mbytes
   Step         PotEng         KinEng         E_coul         E_long         E_vdwl      c_watertemp  
     20000  -29637.267      4744.0895      92914.822     -127443.82      4891.7333      299.7822     
     20500  -29791.597      4778.8985      92732.145     -127445.99      4922.2429      301.98181    
     21000  -29874.824      4793.7306      92542.477     -127447.21      5029.9054      302.91905    
     21500  -29653.817      4660.1541      92850.186     -127439.52      4935.5159      294.47827    
     22000  -29785.221      4759.1079      92721.695     -127445.94      4939.024       300.73123    
     22500  -29709.047      4699.229       92804.374     -127447.65      4934.2278      296.94744    
     23000  -30072.869      4692.7692      92383.338     -127447.03      4990.8273      296.53924    
     23500  -29874.359      4811.3193      92538.06      -127440.6       5028.1857      304.0305     
     24000  -29906.954      4797.16        92598.653     -127444.21      4938.6051      303.13576    
     24500  -29804.629      4754.7807      92787.597     -127446.77      4854.54        300.45779    
     25000  -29774.47       4689.8667      92798.043     -127444.11      4871.6009      296.35583    
     25500  -29710.021      4760.2018      92811.664     -127451.28      4929.5955      300.80035    
     26000  -29690.555      4700.2827      93039.44      -127449.4       4719.4091      297.01402    
     26500  -29829.811      4720.1891      92599.63      -127449.78      5020.3401      298.27192    
     27000  -29813.75       4767.4048      92786.601     -127443.49      4843.1424      301.25551    
     27500  -29853.446      4723.4551      92858.515     -127447.46      4735.5033      298.4783     
     28000  -29724.225      4660.5609      92945.721     -127446.7       4776.7578      294.50398    
     28500  -29946.802      4753.8276      92639.737     -127445.39      4858.8457      300.39756    
     29000  -29785.406      4789.7567      92881.084     -127450.34      4783.8503      302.66794    
     29500  -29850.934      4814.1478      92658.11      -127448.05      4939.0036      304.20924    
     30000  -29967.878      4763.4023      92511.529     -127445.99      4966.5813      301.00259    
     30500  -29941.157      4742.3699      92496.607     -127454.88      5017.113       299.67354    
     31000  -29928.378      4812.2517      92780.7       -127444.74      4735.6658      304.08942    
     31500  -29837.096      4747.5407      92721.392     -127446.7       4888.2111      300.00029    
     32000  -30045.849      4712.2651      92383.485     -127443.42      5014.0816      297.7712     
     32500  -29793.349      4740.5195      92630.819     -127446.11      5021.945       299.55661    
     33000  -29805.818      4712.5459      92686.881     -127447.98      4955.282       297.78894    
     33500  -29778.901      4735.7689      92888.199     -127444.03      4776.9316      299.25642    
     34000  -29812.019      4712.0692      92788.394     -127447.85      4847.4333      297.75882    
     34500  -29806.196      4802.2696      92693.859     -127449.44      4949.3815      303.45864    
     35000  -29704.485      4730.9415      92895.812     -127443.37      4843.0765      298.95137    
     35500  -29755.118      4711.7932      92789.032     -127451.17      4907.0201      297.74138    
     36000  -29649.733      4752.3125      93006.78      -127445         4788.4832      300.30182    
     36500  -29698.379      4829.1416      92823.1       -127447.41      4925.9312      305.1567     
     37000  -29869.89       4817.4581      92567.919     -127441.92      5004.1156      304.41841    
     37500  -29642.837      4804.8353      92948.972     -127446.58      4854.7689      303.62077    
     38000  -29733.201      4703.0665      92776.095     -127445.72      4936.426       297.18993    
     38500  -29864.586      4766.9904      92494.048     -127445.74      5087.1069      301.22932    
     39000  -29848.259      4808.1959      92559.211     -127447.39      5039.9196      303.83313    
     39500  -29773.926      4748.1784      92708.717     -127441.57      4958.9262      300.04058    
     40000  -29707.564      4799.6944      92833.305     -127451.1       4910.234       303.29591    
     40500  -29784.761      4789.6675      92819.143     -127448.95      4845.0443      302.66231    
     41000  -29825.31       4723.4349      92565.019     -127449.13      5058.8037      298.47702    
     41500  -29719.559      4729.7498      92751.394     -127441.45      4970.4996      298.87607    
     42000  -29882.787      4725.5657      92317.938     -127447.77      5247.0433      298.61167    
     42500  -29940.819      4768.1007      92498.902     -127448.3       5008.5809      301.29949    
     43000  -29772.928      4810.8078      92784.645     -127440.63      4883.0611      303.99818    
     43500  -29884.409      4697.3737      92665.239     -127453.63      4903.9794      296.8302     
     44000  -29889.399      4807.7265      92517.236     -127447.29      5040.6552      303.80347    
     44500  -29721.155      4691.841       92764.522     -127448.47      4962.7954      296.48059    
     45000  -29899.044      4716.1744      92500.774     -127449.56      5049.7457      298.01823    
     45500  -29799.85       4767.6926      92799.713     -127446.54      4846.9788      301.2737     
     46000  -29841.202      4770.7624      92858.868     -127439.94      4739.8684      301.46768    
     46500  -29728.156      4833.757       92906.637     -127453.32      4818.526       305.44835    
     47000  -29787.591      4681.7618      92834.419     -127450.59      4828.5789      295.84368    
     47500  -29833.966      4681.1419      92715.18      -127453.45      4904.307       295.8045     
     48000  -29937.166      4719.2781      92369.04      -127444.37      5138.1628      298.21435    
     48500  -29835.052      4795.328       92608.832     -127451.1       5007.2141      303.02       
     49000  -29734.476      4753.1495      92754.622     -127449.95      4960.8499      300.35471    
     49500  -29852.212      4842.1906      92528.315     -127444.83      5064.3072      305.98128    
     50000  -29888.769      4695.53        92570.306     -127446.69      4987.6162      296.7137     
     50500  -29653.314      4743.049       92974.399     -127445.52      4817.8049      299.71645    
     51000  -29815.656      4760.5422      92741.736     -127443.39      4886.0016      300.82186    
     51500  -29721.988      4771.2501      92792.54      -127445.92      4931.3888      301.4985     
     52000  -29888.055      4797.5622      92553.12      -127447.18      5006.0036      303.16118    
     52500  -29690.799      4614.8997      92751.499     -127446.34      5004.0464      291.61861    
     53000  -29631.33       4666.8388      93068.434     -127444.09      4744.3278      294.90068    
     53500  -29745.838      4757.0613      92831.591     -127438.53      4861.1046      300.6019     
     54000  -29616.901      4779.9594      92956.879     -127445.02      4871.2352      302.04885    
     54500  -29743.2        4662.2297      92965.38      -127444.25      4735.6694      294.60943    
     55000  -29655.283      4721.9232      92989.256     -127452.5       4807.9625      298.3815     
     55500  -29767.621      4771.7516      92838.967     -127439.87      4833.2772      301.53019    
     56000  -29705.841      4614.9889      92750.914     -127443.42      4986.6625      291.62425    
     56500  -29684.348      4810.7892      92916.154     -127443.15      4842.644       303.997      
     57000  -29886.553      4749.204       92694.406     -127443.36      4862.4002      300.10539    
     57500  -29758.325      4693.8306      92654.626     -127446.24      5033.2848      296.60631    
     58000  -29775.642      4799.3046      92855.948     -127442.33      4810.7421      303.27128    
     58500  -29827.236      4796.7045      92670.481     -127452.05      4954.3285      303.10698    
     59000  -29666.118      4660.0661      92903.151     -127447.71      4878.436       294.47271    
     59500  -29802.389      4720.0243      92855.91      -127448.5       4790.1971      298.26151    
     60000  -30013.277      4862.2472      92517.767     -127437.98      4906.9339      307.24867    
     60500  -29839.761      4689.3248      92611.513     -127441.61      4990.3327      296.32158    
     61000  -29841.66       4763.1057      92634.039     -127449.03      4973.3342      300.98385    
     61500  -29783.197      4731.1451      92898.075     -127448.08      4766.8048      298.96424    
     62000  -29806.799      4797.3188      92714.169     -127454.12      4933.1562      303.1458     
     62500  -29706.435      4624.6491      92970.968     -127455.34      4777.9414      292.23469    
     63000  -29896.544      4758.07        92718.946     -127450.17      4834.6759      300.66564    
     63500  -29779.655      4703.6705      92805.458     -127444.49      4859.3779      297.2281     
     64000  -29824.419      4813.8969      92742.196     -127441.18      4874.5636      304.19338    
     64500  -29812.644      4810.6363      92728.043     -127447.82      4907.132       303.98734    
     65000  -29784.063      4653.1914      92779.254     -127443.12      4879.7989      294.03829    
     65500  -29869.158      4702.7027      92787.75      -127448.83      4791.9252      297.16695    
     66000  -29763.695      4668.03        92793.456     -127447.99      4890.8411      294.97595    
     66500  -29645.256      4772.4169      92988.26      -127449.66      4816.1438      301.57223    
     67000  -29690.592      4830.4639      92902.783     -127450.21      4856.8381      305.24026    
     67500  -29855.004      4767.7823      92849.214     -127448.72      4744.501       301.27937    
     68000  -29881.354      4834.1169      92398.827     -127450.45      5170.2735      305.4711     
     68500  -29720.852      4780.8072      93087.633     -127447.02      4638.5324      302.10242    
     69000  -29811.13       4703.8717      92746.823     -127437.48      4879.5289      297.24081    
     69500  -29974.329      4794.0345      92595.146     -127454.69      4885.2151      302.93826    
     70000  -29754.898      4767.8792      92922.289     -127455.54      4778.3498      301.28549    
     70500  -29793.245      4785.8159      92616.681     -127445.04      5035.116       302.41892    
     71000  -29817.71       4809.326       92877.506     -127447.76      4752.5446      303.90454    
     71500  -29733.425      4753.1653      92772.925     -127442.06      4935.7149      300.35571    
     72000  -29895.644      4702.8801      92682.184     -127444.85      4867.0213      297.17815    
     72500  -29740.547      4797.4633      92739.883     -127442.6       4962.1738      303.15493    
     73000  -29903.655      4713.6042      92572.498     -127456.23      4980.0737      297.85582    
     73500  -29792.46       4828.6033      92676.507     -127451.01      4982.0431      305.12269    
     74000  -29911.613      4776.4825      92517.87      -127444.72      5015.2356      301.82914    
     74500  -29731.721      4684.0259      92955.238     -127447.51      4760.548       295.98674    
     75000  -29838.471      4729.4229      92584.161     -127452.11      5029.4735      298.85541    
     75500  -29709.232      4721.8051      92914.238     -127446.41      4822.9387      298.37404    
     76000  -29647.023      4724.2886      92909.068     -127447.69      4891.6025      298.53097    
     76500  -29746.796      4685.3065      92814.537     -127447.81      4886.4792      296.06766    
     77000  -29829.06       4729.9392      92823.088     -127451.88      4799.7331      298.88804    
     77500  -29859.683      4751.8457      92640.428     -127443.8       4943.6926      300.27232    
     78000  -29671.123      4717.8091      93102.701     -127452.65      4678.8283      298.12153    
     78500  -29804.534      4794.8605      92779.45      -127450.5       4866.5195      302.99046    
     79000  -29894.861      4713.8688      92491.932     -127448.87      5062.0749      297.87254    
     79500  -29914.649      4728.4448      92720.429     -127445.12      4810.0422      298.7936     
     80000  -29746.931      4743.3224      92917.171     -127452.74      4788.6396      299.73373    
     80500  -29858.623      4791.1196      92706.697     -127452.32      4887.0023      302.75407    
     81000  -29766.838      4783.4807      92678.857     -127447.42      5001.725       302.27136    
     81500  -29633.009      4745.1898      92937.377     -127452.63      4882.2422      299.85173    
     82000  -29928.926      4828.7282      92649.789     -127449.47      4870.7581      305.13058    
     82500  -29689.595      4775.1799      92983.161     -127450.54      4777.7852      301.74682    
     83000  -29816.12       4815.582       93027.874     -127441.74      4597.7458      304.29986    
     83500  -29765.263      4706.5796      92823.374     -127451.19      4862.5498      297.41193    
     84000  -29723.362      4833.0685      92787.355     -127449.78      4939.0606      305.40484    
     84500  -29781.276      4813.8285      92698.669     -127443.13      4963.1826      304.18905    
     85000  -29888.178      4781.4078      92622.616     -127446.83      4936.0362      302.14037    
     85500  -29819.633      4726.9721      92613.931     -127451.38      5017.8195      298.70055    
     86000  -29737.806      4762.6098      92864.207     -127449.92      4847.9097      300.95251    
     86500  -29630.806      4784.2613      93028.845     -127448.5       4788.8494      302.32068    
     87000  -29790.76       4770.6035      92693.386     -127439.17      4955.0248      301.45764    
     87500  -29737.539      4736.6627      92782.399     -127449.67      4929.7275      299.3129     
     88000  -29777.334      4700.537       92920.953     -127446.89      4748.602       297.03009    
     88500  -29822.195      4715.0402      92808.088     -127444.95      4814.6634      297.94656    
     89000  -29762.109      4693.162       92787.389     -127448.06      4898.5668      296.56406    
     89500  -29839.723      4832.101       92648.96      -127451.13      4962.451       305.34371    
     90000  -29906.444      4677.0777      92590.565     -127450.47      4953.4604      295.54768    
     90500  -29807.218      4722.821       92778.062     -127452.24      4866.9563      298.43823    
     91000  -29877.183      4700.5109      92587.401     -127440.7       4976.1163      297.02844    
     91500  -29918.086      4789.7736      92573.731     -127453.19      4961.3721      302.66901    
     92000  -29829.984      4773.2802      92879.147     -127453.22      4744.0838      301.62678    
     92500  -29992.562      4817.3145      92513.481     -127444.21      4938.1699      304.40934    
     93000  -29803.431      4749.8454      92744.348     -127441.8       4894.0254      300.14592    
     93500  -29751.412      4693.6981      92854.214     -127454.58      4848.9561      296.59794    
     94000  -29754.229      4720.5884      92833.062     -127445.87      4858.5776      298.29715    
     94500  -29733.427      4689.3598      93003.384     -127435.71      4698.8978      296.3238     
     95000  -29769.077      4712.941       92895.497     -127442.73      4778.1529      297.81391    
     95500  -29736.432      4779.3119      92831.355     -127447.01      4879.2266      302.00793    
     96000  -29811.047      4749.133       92836.89      -127457.5       4809.565       300.1009     
     96500  -29865.281      4772.5796      92659.81      -127439.43      4914.3359      301.58251    
     97000  -29878.877      4815.1589      92597.712     -127449.06      4972.4754      304.27313    
     97500  -29746.999      4795.7367      92701.988     -127447.73      4998.7435      303.04583    
     98000  -29709.473      4743.7498      92770.585     -127446.47      4966.407       299.76074    
     98500  -29730.242      4681.2331      92929.914     -127447.51      4787.3567      295.81027    
     99000  -29785.578      4768.0138      92745.091     -127446.77      4916.0997      301.294      
     99500  -29877.321      4707.6716      92484.743     -127444.68      5082.611       297.48093    
    100000  -29865.479      4711.7338      92461.475     -127442.07      5115.1183      297.73762    
    100500  -29772.307      4825.1417      92849.008     -127449.12      4827.803       304.90394    
    101000  -29757.959      4746.4339      92992.722     -127449.03      4698.3513      299.93035    
    101500  -29761.392      4816.0821      92879.988     -127448.99      4807.6134      304.33146    
    102000  -29907.058      4795.1913      92550.743     -127444.32      4986.5237      303.01136    
    102500  -29853.795      4763.8266      92582.903     -127446.23      5009.5357      301.02941    
    103000  -29866.395      4788.4469      92540.269     -127451.86      5045.1926      302.58518    
    103500  -29725.375      4653.0584      92767.292     -127448.8       4956.1314      294.02989    
    104000  -29697.018      4777.8655      92786.808     -127447.63      4963.7994      301.91653    
    104500  -29781.98       4777.009       92713.394     -127443.33      4947.9581      301.86241    
    105000  -29758.084      4716.9932      92693.535     -127442.46      4990.8376      298.06997    
    105500  -29744.648      4646.19        92759.218     -127449.85      4945.9851      293.59587    
    106000  -29796.555      4698.3835      92731.373     -127449.2       4921.2674      296.89401    
    106500  -29722.308      4807.9508      92725.001     -127444.7       4997.3916      303.81764    
    107000  -29856.232      4764.952       92646.15      -127447.89      4945.5096      301.10052    
    107500  -29717.81       4705.5392      92594.328     -127444.79      5132.657       297.34618    
    108000  -29703.357      4812.3954      92902.995     -127443.93      4837.5782      304.0985     
    108500  -29786.339      4734.8008      92798.266     -127453.11      4868.5073      299.19524    
    109000  -29759.963      4710.7163      92905.759     -127450.78      4785.0627      297.67333    
    109500  -29694.217      4750.768       92734.338     -127450.16      5021.6081      300.20422    
    110000  -29845.3        4789.6136      92768.472     -127447.2       4833.4313      302.6589     
    110500  -29715.508      4858.6002      92855.905     -127450.11      4878.6948      307.01821    
    111000  -29712.38       4864.4371      92970.58      -127441.3       4758.3424      307.38705    
    111500  -29710.563      4704.2012      92813.097     -127443.27      4919.6077      297.26163    
    112000  -29765.429      4696.3197      92736.119     -127444.63      4943.0835      296.7636     
    112500  -29709.253      4765.7         93026.902     -127454.59      4718.4353      301.14778    
    113000  -29689.361      4778.5887      92813.335     -127446.86      4944.1683      301.96223    
    113500  -29817.048      4783.1114      92806.017     -127448.84      4825.7714      302.24802    
    114000  -29772.716      4700.0295      92691.245     -127441.85      4977.8909      296.99802    
    114500  -29779.04       4682.0812      92686.206     -127450.69      4985.4437      295.86386    
    115000  -29773.739      4623.6697      92734.74      -127439.3       4930.8177      292.17279    
    115500  -29733.512      4717.4204      92873.429     -127452.83      4845.8844      298.09696    
    116000  -29690.886      4742.3417      92788.63      -127453.06      4973.5416      299.67176    
    116500  -29701.476      4686.4543      92963.579     -127446.52      4781.4671      296.1402     
    117000  -29715.649      4689.8803      92914.705     -127445.35      4815.0003      296.35668    
    117500  -29589.857      4749.2182      93051.343     -127443.21      4802.0097      300.10629    
    118000  -29762.713      4797.6552      92789.746     -127445.64      4893.1846      303.16706    
    118500  -29675.267      4810.1428      92990.438     -127445.09      4779.3853      303.95616    
    119000  -29672.386      4789.339       92972.467     -127443.69      4798.8405      302.64155    
    119500  -29712.96       4678.5683      92837.124     -127448.16      4898.08        295.64188    
    120000  -29672.231      4833.201       92975.742     -127445.63      4797.6606      305.41322    
    120500  -29776.065      4786.0161      93018.709     -127453.21      4658.4365      302.43157    
    121000  -29656.135      4656.7055      92965.489     -127447.55      4825.9299      294.26035    
    121500  -29774.255      4731.8993      92732.192     -127442.9       4936.4559      299.0119     
    122000  -29874.987      4799.8228      92715.386     -127439.46      4849.0899      303.30403    
    122500  -29917.227      4699.0164      92552.987     -127446.31      4976.0952      296.934      
    123000  -29797.158      4733.7644      92754.373     -127447.32      4895.7886      299.12975    
    123500  -29752.195      4819.7391      92880.549     -127443.31      4810.5631      304.56255    
    124000  -29693.087      4780.3362      92775.002     -127445.26      4977.1732      302.07266    
    124500  -29791.516      4785.1721      92746.695     -127446.35      4908.1352      302.37824    
    125000  -29767.225      4781.1717      92894.215     -127448.35      4786.9147      302.12545    
    125500  -29691.718      4708.5585      92949.953     -127438         4796.3257      297.53697    
    126000  -29982.418      4744.0384      92560.849     -127446.37      4903.1062      299.77897    
    126500  -29768.375      4714.3581      92859.21      -127444.3       4816.7164      297.90346    
    127000  -29832.97       4787.0061      92609.847     -127447.33      5004.5093      302.49413    
    127500  -29958.006      4870.4357      92413.073     -127454.83      5083.7525      307.7661     
    128000  -29766.106      4762.2557      92669.658     -127451.73      5015.9623      300.93014    
    128500  -29875.807      4737.0521      92608.825     -127451.4       4966.7663      299.33751    
    129000  -29804.004      4764.4168      92810.994     -127448.07      4833.0695      301.0667     
    129500  -29757.98       4778.9561      92822.401     -127445.73      4865.3482      301.98545    
    130000  -29782.454      4829.5555      92819.244     -127449.11      4847.4091      305.18286    
    130500  -29667.805      4690.1375      92816.128     -127451.14      4967.207       296.37294    
    131000  -29643.4        4730.6412      92942.169     -127445.21      4859.6427      298.93239    
    131500  -29941.268      4791.5015      92472.384     -127452.83      5039.1801      302.7782     
    132000  -29878.008      4721.1893      92714.904     -127450.83      4857.9229      298.33512    
    132500  -29665.671      4796.1684      92865.457     -127447.25      4916.1194      303.07311    
    133000  -29766.813      4784.2211      92887.066     -127443.83      4789.9561      302.31815    
    133500  -29746.658      4691.0771      92886.018     -127446.77      4814.0942      296.43231    
    134000  -29750.332      4683.1828      92930.448     -127446.64      4765.8586      295.93347    
    134500  -29840.501      4723.2138      92574.559     -127444.6       5029.5418      298.46305    
    135000  -29728.582      4722.9156      92947.743     -127451.21      4774.8842      298.44421    
    135500  -29644.296      4711.9624      93011.135     -127443.6       4788.1645      297.75207    
    136000  -29966.902      4744.967       92441.731     -127453.59      5044.9543      299.83765    
    136500  -29673.072      4734.313       92798.637     -127445.72      4974.0157      299.16442    
    137000  -29774.021      4687.6702      92809.564     -127445.6       4862.0127      296.21703    
    137500  -29817.298      4721.6063      92782.238     -127438.77      4839.2316      298.36148    
    138000  -29885.969      4708.6948      92599.732     -127450.89      4965.1874      297.54559    
    138500  -29684.299      4728.0674      92995.701     -127443.63      4763.6273      298.76976    
    139000  -29923.896      4733.9878      92556.117     -127443.26      4963.2452      299.14387    
    139500  -29985.434      4703.2479      92572.474     -127439.15      4881.2381      297.20139    
    140000  -29852.144      4739.017       92762.933     -127443.53      4828.4482      299.46167    
    140500  -29735.89       4770.2366      92947.704     -127447.48      4763.8828      301.43446    
    141000  -29902.659      4894.766       92662.744     -127447.28      4881.8724      309.30355    
    141500  -29863.757      4714.9152      92650.342     -127454.13      4940.0326      297.93866    
    142000  -29772.986      4777.3418      92508.926     -127444.39      5162.4778      301.88344    
    142500  -29719.375      4730.2843      92737.598     -127449.29      4992.3124      298.90984    
    143000  -29861.03       4768.8094      92798.503     -127449.85      4790.3137      301.34427    
    143500  -29737.201      4689.4239      92807.369     -127450.18      4905.6078      296.32785    
    144000  -29755.256      4834.9317      92743.55      -127451.44      4952.6363      305.52258    
    144500  -29775.404      4825.6014      92965.64      -127455.12      4714.0767      304.93299    
    145000  -29828.075      4789.5001      92743.459     -127452.8       4881.269       302.65173    
    145500  -29912.409      4783.5775      92797.456     -127447.81      4737.9479      302.27748    
    146000  -29911.301      4763.7563      92549.432     -127444.5       4983.7671      301.02496    
    146500  -29826.389      4757.6851      92664.76      -127447.74      4956.5899      300.64132    
    147000  -29731.667      4784.1449      93000.235     -127447.79      4715.8872      302.31333    
    147500  -29643.415      4803.8233      92948.543     -127445.28      4853.3232      303.55682    
    148000  -29809.636      4718.8171      92646.332     -127447.15      4991.1802      298.18522    
    148500  -29692.353      4717.3153      92968.129     -127447.7       4787.22        298.09032    
    149000  -29843.927      4759.3303      92684.523     -127445.79      4917.3421      300.74528    
    149500  -29730.399      4658.8568      92814.949     -127446.03      4900.6772      294.39629    
    150000  -29826.559      4711.7798      92871.815     -127448.71      4750.3331      297.74053    
    150500  -29675.639      4804.331       92943.64      -127441.26      4821.9827      303.5889     
    151000  -29704.745      4724.2201      92793.967     -127447.35      4948.6365      298.52664    
    151500  -29816.469      4739.8739      92698.929     -127444.68      4929.2781      299.51582    
    152000  -29759.496      4787.5488      92953.851     -127447.53      4734.1819      302.52842    
    152500  -29708.307      4720.0123      93022.336     -127452.01      4721.3681      298.26075    
    153000  -29919.047      4739.6696      92575.491     -127446.65      4952.1166      299.50291    
    153500  -29800.791      4801.0313      92687.021     -127441.27      4953.4615      303.38039    
    154000  -29751.746      4663.7563      92808.865     -127455.32      4894.7082      294.70589    
    154500  -29642.803      4789.4846      92978.574     -127446         4824.6189      302.65075    
    155000  -29743.084      4730.5748      92775.103     -127445.26      4927.0772      298.9282     
    155500  -29897.539      4663.9667      92587.052     -127452.67      4968.0746      294.71919    
    156000  -29713.942      4750.9456      92768.567     -127452.26      4969.7553      300.21545    
    156500  -29676.936      4744.2009      92870.842     -127447.94      4900.1668      299.78924    
    157000  -29782.862      4756.9611      92720.59      -127449.74      4946.2866      300.59557    
    157500  -29922.657      4796.6524      92468.515     -127449.1       5057.9267      303.10369    
    158000  -29810.473      4713.3895      92713.749     -127445.03      4920.809       297.84225    
    158500  -29751.28       4702.8413      92794.041     -127443.34      4898.0159      297.1757     
    159000  -29615.847      4716.3156      93072.154     -127443.37      4755.3719      298.02715    
    159500  -29779.105      4728.8767      92828.842     -127449.6       4841.6525      298.82089    
    160000  -29689.442      4776.173       92944.127     -127451.15      4817.5814      301.80958    
    160500  -29804.512      4829.7808      92751.888     -127448.55      4892.1496      305.1971     
    161000  -29954.903      4674.4939      92475.099     -127450.18      5020.1727      295.38441    
    161500  -29711.819      4752.3342      92848.272     -127450.95      4890.8576      300.30319    
    162000  -29719.592      4733.7543      92879.63      -127438.73      4839.5095      299.12912    
    162500  -29768.985      4702.5515      92849.43      -127446.17      4827.7567      297.15739    
    163000  -29633.114      4739.1498      92997.67      -127449.55      4818.7625      299.47006    
    163500  -29827.02       4707.3848      92894.436     -127451.31      4729.8555      297.46281    
    164000  -29686.254      4687.2492      93029.673     -127442.89      4726.9648      296.19042    
    164500  -29732.132      4762.3875      92796.349     -127438.71      4910.229       300.93846    
    165000  -29732.041      4747.9659      92731.756     -127446.09      4982.2966      300.02716    
    165500  -29838.484      4797.0525      92736.317     -127440.02      4865.2186      303.12897    
    166000  -29802.003      4795.8415      92684.851     -127445.76      4958.9016      303.05245    
    166500  -29793.14       4809.1994      92672.521     -127448.18      4982.5219      303.89654    
    167000  -29787.065      4769.2128      92788.794     -127450.08      4874.2172      301.36976    
    167500  -29702.825      4736.7851      92843.822     -127444.56      4897.9104      299.32063    
    168000  -29851.043      4761.3281      92634.997     -127441.54      4955.4956      300.87152    
    168500  -29859.954      4778.8324      92799.175     -127443.92      4784.7924      301.97763    
    169000  -29772.895      4763.9861      92906.494     -127458.96      4779.5756      301.03948    
    169500  -29958.853      4743.5092      92661.429     -127445.58      4825.3         299.74553    
    170000  -29593.206      4734.6725      92945.966     -127441.45      4902.2776      299.18713    
    170500  -29693.943      4709.6152      93042.018     -127452.2       4716.2422      297.60375    
    171000  -29708.965      4776.7108      92601.263     -127444.34      5134.1097      301.84357    
    171500  -29748.612      4751.5278      92711.677     -127448.61      4988.3193      300.25223    
    172000  -29836.583      4804.3266      92749.193     -127443.34      4857.5629      303.58862    
    172500  -29784.161      4811.311       92823.725     -127449.94      4842.0497      304.02997    
    173000  -29709.644      4742.3208      92720.364     -127444.71      5014.6972      299.67044    
    173500  -29736.853      4753.9113      92767.829     -127445.36      4940.6793      300.40285    
    174000  -29921.328      4731.686       92692.505     -127450.63      4836.8011      298.99842    
    174500  -29834.161      4760.2362      92731.392     -127441.27      4875.716       300.80253    
    175000  -29783.651      4762.0722      92795.924     -127443.29      4863.7187      300.91854    
    175500  -29804.611      4783.2008      92797.856     -127447.79      4845.3227      302.25367    
    176000  -29777.819      4716.7203      92907.606     -127454.04      4768.6143      298.05273    
    176500  -29864.396      4733.7901      92754.514     -127448.83      4829.9207      299.13138    
    177000  -29694.933      4720.0204      92761.65      -127445.45      4988.8673      298.26126    
    177500  -29872.744      4684.5342      92574.912     -127444.3       4996.6479      296.01886    
    178000  -29605.932      4760.2401      92983.501     -127443.58      4854.1454      300.80277    
    178500  -29847.207      4764.9641      92694.412     -127451.09      4909.4752      301.10128    
    179000  -29754.154      4705.3952      92844.811     -127447.25      4848.2851      297.33708    
    179500  -29790.679      4635.6043      92817.811     -127450.29      4841.8028      292.92695    
    180000  -29823.41       4702.8356      92826.563     -127451.98      4802.0097      297.17534    
    180500  -29733.209      4733.5574      92793.479     -127447.98      4921.291       299.11667    
    181000  -29745.794      4774.3801      92852.587     -127444.28      4845.8957      301.69629    
    181500  -29748.721      4723.8941      92860.939     -127445.44      4835.7769      298.50604    
    182000  -29912.499      4808.7038      92552.973     -127449.62      4984.1454      303.86523    
    182500  -29612.554      4749.9296      93080.087     -127448.54      4755.9011      300.15125    
    183000  -29723.312      4653.934       92944.116     -127450.81      4783.3772      294.08521    
    183500  -29743.951      4715.3047      93057.393     -127447.89      4646.5436      297.96328    
    184000  -29703.317      4810.5577      92869.434     -127444.28      4871.5277      303.98237    
    184500  -29742.292      4851.4345      92729.653     -127448.12      4976.1771      306.5654     
    185000  -29678.575      4772.4745      92934.343     -127454.65      4841.7329      301.57587    
    185500  -29750.162      4722.6917      92828.155     -127443.55      4865.2307      298.43006    
    186000  -29867.967      4832.2828      92617.853     -127446.81      4960.9929      305.3552     
    186500  -29708.731      4793.3395      92778.045     -127446.28      4959.4998      302.89435    
    187000  -29801.955      4674.6446      92776.692     -127446.6       4867.9573      295.39393    
    187500  -29778.258      4741.8747      92786.664     -127444.77      4879.8452      299.64225    
    188000  -29840.242      4711.7777      92737.688     -127451.25      4873.316       297.7404     
    188500  -29815.117      4723.4302      92603.17      -127444.59      5026.3014      298.47673    
    189000  -29819.205      4751.0656      92768.116     -127449.66      4862.3373      300.22303    
    189500  -29843.733      4773.1646      92755.513     -127448.61      4849.3649      301.61948    
    190000  -29813.978      4718.0363      92741.463     -127442.75      4887.3069      298.13588    
    190500  -29909.185      4767.7291      92568.673     -127440.89      4963.0299      301.27601    
    191000  -29808.772      4801.2373      92638.126     -127444.67      4997.7692      303.39341    
    191500  -29856.731      4835.6157      92715.503     -127451.2       4878.9666      305.56581    
    192000  -29877.575      4875.7321      92574.171     -127450.38      4998.6383      308.10079    
    192500  -29814.821      4737.358       92683.526     -127445.57      4947.2224      299.35683    
    193000  -29708.599      4710.4618      92866.894     -127440.99      4865.4993      297.65724    
    193500  -29732.195      4757.9415      92742.286     -127446.7       4972.215       300.65752    
    194000  -29667.119      4781.5418      92970.276     -127450.16      4812.7619      302.14884    
    194500  -29715.178      4763.1995      92887.262     -127444.42      4841.9773      300.98978    
    195000  -29698.532      4710.5401      92777.371     -127447.47      4971.5686      297.66219    
    195500  -29699.917      4765.4459      92903.346     -127443.12      4839.8553      301.13173    
    196000  -29827.301      4766.5088      92708.136     -127449.15      4913.7151      301.19889    
    196500  -29780.989      4762.4566      92933.086     -127441.28      4727.209       300.94283    
    197000  -29974.001      4630.2678      92393.211     -127444.36      5077.1516      292.58973    
    197500  -29769.862      4682.2174      92714.548     -127442.78      4958.3717      295.87246    
    198000  -29866.173      4825.1681      92758.105     -127441.66      4817.3808      304.90562    
    198500  -29715.435      4753.7669      92769.234     -127440.8       4956.1363      300.39373    
    199000  -29777.666      4691.9971      92665.374     -127445.26      5002.2226      296.49045    
    199500  -29702.646      4747.9238      92817.059     -127447.48      4927.7744      300.02449    
    200000  -29822.353      4798.6191      92867.199     -127445.87      4756.3138      303.22796    
    200500  -29703.447      4723.7827      92905.442     -127450.58      4841.688       298.499      
    201000  -29816.153      4803.9526      92622.284     -127445.03      5006.5908      303.56499    
    201500  -29690.311      4750.1089      92883.699     -127451.07      4877.0576      300.16257    
    202000  -29772.217      4667.4095      92667.311     -127444.88      5005.3564      294.93674    
    202500  -29577.139      4834.6821      93069.188     -127439.79      4793.4668      305.50681    
    203000  -29767.216      4674.8638      92710.255     -127448.37      4970.8967      295.40778    
    203500  -29629.251      4641.9125      93013.278     -127444.34      4801.8125      293.32557    
    204000  -29689.676      4748.6327      92844.486     -127443.33      4909.1712      300.06929    
    204500  -29787.286      4715.1792      92817.37      -127452.15      4847.4956      297.95534    
    205000  -29705.659      4723.4644      92836.47      -127442.49      4900.3582      298.47889    
    205500  -29810.94       4750.9479      92752.237     -127447.37      4884.1931      300.21559    
    206000  -29818.926      4824.4227      92653.77      -127453.05      4980.3583      304.85851    
    206500  -29747.856      4747.0744      92799.537     -127445.24      4897.8424      299.97082    
    207000  -29912.5        4702.6298      92668.39      -127447.55      4866.6622      297.16234    
    207500  -29582.99       4757.6038      93018.702     -127445.61      4843.9145      300.63618    
    208000  -29739.821      4710.828       93056.471     -127451.22      4654.9259      297.68039    
    208500  -29682.389      4699.3868      92898.999     -127448.88      4867.4962      296.95741    
    209000  -29813.658      4704.1819      92691.411     -127440.48      4935.4066      297.26042    
    209500  -29749.552      4788.7496      92901.419     -127445.68      4794.707       302.6043     
    210000  -29734.705      4829.3495      92914.749     -127451.08      4801.6301      305.16984    
    210500  -29850.34       4824.4128      92725.662     -127445.99      4869.9896      304.85788    
    211000  -29751.604      4735.4841      92873.534     -127454.47      4829.3343      299.23842    
    211500  -29688.051      4895.4519      93040.16      -127447.96      4719.7454      309.34689    
    212000  -29742.816      4637.715       92886.097     -127446.95      4818.0372      293.06033    
    212500  -29824.479      4732.774       92725.502     -127447.12      4897.1353      299.06717    
    213000  -29889.525      4792.2223      92657.426     -127453.77      4906.8186      302.82375    
    213500  -29741.379      4788.2134      92889.019     -127453.33      4822.9353      302.57042    
    214000  -29636.014      4760.6911      92884.305     -127445.54      4925.2176      300.83127    
    214500  -29916.587      4559.3817      92771.852     -127450.96      4762.5246      288.1104     
    215000  -29845.046      4803.2969      92718.475     -127441.42      4877.8977      303.52356    
    215500  -29783.187      4749.6049      92744.332     -127446.58      4919.0626      300.13073    
    216000  -29916.177      4735.1319      92526.141     -127449.47      5007.1513      299.21617    
    216500  -29650.718      4833.6173      92972.616     -127442.21      4818.8804      305.43953    
    217000  -29756.59       4842.1129      92948.904     -127448.14      4742.6494      305.97637    
    217500  -29651.433      4692.305       92889.156     -127451.68      4911.0937      296.50991    
    218000  -29873.408      4728.9981      92658.2       -127449.61      4917.9967      298.82856    
    218500  -29829.471      4791.8295      92669.46      -127444.79      4945.86        302.79893    
    219000  -29862.259      4688.3966      92571.529     -127437.66      5003.8699      296.26293    
    219500  -29859.625      4722.113       92663.823     -127451.51      4928.0587      298.39349    
    220000  -29732.008      4750.2221      92850.789     -127445.25      4862.4493      300.16972    
Loop time of 5669.87 on 30 procs for 200000 steps with 9401 atoms

Performance: 6.095 ns/day, 3.937 hours/ns, 35.274 timesteps/s, 331.612 katom-step/s
94.2% CPU use with 30 MPI tasks x 1 OpenMP threads

MPI task timing breakdown:
Section |  min time  |  avg time  |  max time  |%varavg| %total
---------------------------------------------------------------
Pair    | 474.89     | 1019       | 1337.1     | 754.3 | 17.97
Bond    | 0.12585    | 0.24136    | 0.3646     |  10.0 |  0.00
Kspace  | 1441       | 1756.7     | 2301.5     | 575.6 | 30.98
Neigh   | 407.6      | 410.62     | 414.12     |   8.2 |  7.24
Comm    | 144.05     | 167.92     | 190.57     |  79.0 |  2.96
Output  | 5.7946     | 7.7518     | 9.7362     |  42.6 |  0.14
Modify  | 2284.8     | 2299.3     | 2312.4     |  12.2 | 40.55
Other   |            | 8.381      |            |       |  0.15

Nlocal:        313.367 ave         363 max         269 min
Histogram: 2 5 8 3 0 0 1 1 6 4
Nghost:        7678.33 ave        9431 max        6009 min
Histogram: 12 0 0 0 0 0 3 9 0 6
Neighs:         213008 ave      261625 max      123749 min
Histogram: 4 1 1 0 0 0 7 5 9 3

Total # of neighbors = 6390253
Ave neighs/atom = 679.74184
Ave special neighs/atom = 1.6919477
Neighbor list builds = 19293
Dangerous builds = 13136
    #write_data structure.data
    undump alldump
    next l
    unfix conp2
    jump SELF loop_start
    variable l_tf equal ${l}/2
    variable l_tf equal 6/2
    # fix id group1 electrode/conp psi1 eta couple group2 psi2 write_inv
    # fix conp1 lower electrode/conp 0.0 5 couple upper 0.0 write_inv inv.out etypes 1*6 # Write call to not have to determine the matrix twice
    fix conp1 lower electrode/conp 0.0 2.925 couple upper 0.0# Write call to not have to determine the matrix twice
1440 atoms in group conp_group
    fix_modify conp1 tf 1 ${l_tf} ${d}
    fix_modify conp1 tf 1 3 ${d}
    fix_modify conp1 tf 1 3 6.81038626666667
    fix_modify conp1 tf 6 ${l_tf} ${d}
    fix_modify conp1 tf 6 3 ${d}
    fix_modify conp1 tf 6 3 6.81038626666667
    # fix conp1 lower electrode/conp 0.0 5 couple upper 0.0 read_inv inv.out # Write call to not have to determine the matrix twice

    # ======== equilibrate for ? ns ========
    reset_timestep 0
    thermo 50
    # dump equilxtc h2o xtc 50 equil.xtc
    run 500 # 1 ps, ~ correlation time of spce water
PPPM/electrode initialization ...
  using 12-bit tables for long-range coulomb (src/kspace.cpp:342)
  G vector (1/distance) = 0.2378332
  grid = 40 45 100
  stencil order = 5
  estimated absolute RMS force accuracy = 0.00036351918
  estimated relative force accuracy = 1.0947272e-06
  using double precision FFTW3
  3d grid and FFT values/proc = 45144 22200
Generated 15 of 15 mixed pair_coeff terms from arithmetic mixing rule
WARNING: Neighbor exclusions used with KSpace solver may give inconsistent Coulombic energies (src/neighbor.cpp:654)
Neighbor list info ...
  update: every = 1 steps, delay = 10 steps, check = yes
  max neighbors/atom: 2000, page size: 100000
  master list distance cutoff = 16
  ghost atom cutoff = 16
  binsize = 8, bins = 6 6 7
  2 neighbor lists, perpetual/occasional/extra = 2 0 0
  (1) pair lj/cut/coul/long, perpetual
      attributes: half, newton on
      pair build: half/bin/newton
      stencil: half/bin/3d
      bin: standard
  (2) fix electrode/conp, perpetual, copy from (1)
      attributes: half, newton on
      pair build: copy
      stencil: none
      bin: none
Per MPI rank memory allocation (min/avg/max) = 27.35 | 27.86 | 29.57 Mbytes
   Step         PotEng         KinEng         E_coul         E_long         E_vdwl      c_watertemp  
         0  -29729.554      4750.2221      92851.011     -127443.01      4862.4493      300.16972    
        50  -29707.458      4738.5002      92883.888     -127445.11      4853.7636      299.42901    
       100  -29616.222      4668.8056      93142.28      -127448.4       4689.898       295.02496    
       150  -29665.174      4778.2518      92945.552     -127446.87      4836.1403      301.94094    
       200  -29606.899      4783.4804      92977.755     -127444.37      4859.7119      302.27134    
       250  -29648.45       4855.3548      93008.861     -127443.76      4786.4487      306.81313    
       300  -29601.207      4809.1014      93065.899     -127445.62      4778.512       303.89035    
       350  -29698.883      4871.1898      92954.066     -127442.2       4789.2485      307.81375    
       400  -29693.489      4791.6187      92951.983     -127443.82      4798.3446      302.78561    
       450  -29679.069      4724.2418      92938.171     -127449.46      4832.2237      298.52801    
       500  -29655.826      4685.5043      92929.059     -127444.95      4860.0662      296.08016    
Loop time of 14.7941 on 30 procs for 500 steps with 9401 atoms

Performance: 5.840 ns/day, 4.109 hours/ns, 33.797 timesteps/s, 317.728 katom-step/s
94.4% CPU use with 30 MPI tasks x 1 OpenMP threads

MPI task timing breakdown:
Section |  min time  |  avg time  |  max time  |%varavg| %total
---------------------------------------------------------------
Pair    | 1.1617     | 2.5953     | 3.983      |  43.2 | 17.54
Bond    | 0.00034917 | 0.00063935 | 0.0009597  |   0.0 |  0.00
Kspace  | 3.2569     | 4.6331     | 6.0519     |  32.4 | 31.32
Neigh   | 1.075      | 1.0808     | 1.0887     |   0.3 |  7.31
Comm    | 0.3643     | 0.40767    | 0.4521     |   3.5 |  2.76
Output  | 0.0009895  | 0.0010193  | 0.0014505  |   0.3 |  0.01
Modify  | 6.0274     | 6.0554     | 6.0821     |   0.6 | 40.93
Other   |            | 0.02029    |            |       |  0.14

Nlocal:        313.367 ave         357 max         276 min
Histogram: 5 6 4 0 3 0 0 2 6 4
Nghost:        7708.37 ave        9447 max        6009 min
Histogram: 12 0 0 0 0 0 0 12 0 6
Neighs:         213548 ave      252098 max      122019 min
Histogram: 5 1 0 0 0 0 0 7 8 9

Total # of neighbors = 6406445
Ave neighs/atom = 681.46421
Ave special neighs/atom = 1.6919477
Neighbor list builds = 48
Dangerous builds = 33

    write_dump solvent xyz water_ions.xyz
    write_data equilibrated_structure.data
System init for write_data ...
PPPM/electrode initialization ...
  using 12-bit tables for long-range coulomb (src/kspace.cpp:342)
  G vector (1/distance) = 0.23783319
  grid = 40 45 100
  stencil order = 5
  estimated absolute RMS force accuracy = 0.00036351856
  estimated relative force accuracy = 1.0947254e-06
  using double precision FFTW3
  3d grid and FFT values/proc = 45144 22200
Generated 15 of 15 mixed pair_coeff terms from arithmetic mixing rule
WARNING: Neighbor exclusions used with KSpace solver may give inconsistent Coulombic energies (src/neighbor.cpp:654)

    ## ======== production run ========


    reset_timestep 0
    # Dump to also show the changing charge of the walls
    dump alldump all custom 50 wallcharge_${l_tf}.lammpstrj id type x y z q
    dump alldump all custom 50 wallcharge_3.lammpstrj id type x y z q
    thermo 500 # frequency log file
    #
    variable doutx equal 50 # 0.1ps
    #
    #dump xtc all xtc ${doutx} traj.xtc
    run 20000
PPPM/electrode initialization ...
  using 12-bit tables for long-range coulomb (src/kspace.cpp:342)
  G vector (1/distance) = 0.23783319
  grid = 40 45 100
  stencil order = 5
  estimated absolute RMS force accuracy = 0.00036351856
  estimated relative force accuracy = 1.0947254e-06
  using double precision FFTW3
  3d grid and FFT values/proc = 45144 22200
Generated 15 of 15 mixed pair_coeff terms from arithmetic mixing rule
WARNING: Neighbor exclusions used with KSpace solver may give inconsistent Coulombic energies (src/neighbor.cpp:654)
Per MPI rank memory allocation (min/avg/max) = 27.35 | 27.86 | 29.57 Mbytes
   Step         PotEng         KinEng         E_coul         E_long         E_vdwl      c_watertemp  
         0  -29655.826      4685.5043      92929.057     -127444.95      4860.0662      296.08016    
       500  -29750.948      4700.3578      92880.548     -127450         4818.5078      297.01877    
      1000  -29926.454      4745.0638      92656.851     -127446.26      4862.9537      299.84377    
      1500  -29710.497      4661.0334      92831.829     -127445.62      4903.2903      294.53383    
      2000  -29888.585      4724.9145      92652.58      -127450.54      4909.3751      298.57052    
      2500  -29656.219      4638.144       92944.23      -127450.71      4850.261       293.08744    
      3000  -29698.916      4652.2168      92897.226     -127445.4       4849.2609      293.9767     
      3500  -29766.297      4740.2299      92677.521     -127447.71      5003.8926      299.53831    
      4000  -29739.264      4666.4244      92938.906     -127450.13      4771.9635      294.87449    
      4500  -29736.847      4754.5602      92948.783     -127446.93      4761.2994      300.44385    
      5000  -29540.713      4789.3529      93029.76      -127451.45      4880.9792      302.64243    
      5500  -29826.321      4711.8685      92909.047     -127449.33      4713.9602      297.74614    
      6000  -29778.67       4768.9734      92686.498     -127436.51      4971.3416      301.35464    
      6500  -29743.344      4797.4765      92781.298     -127448.02      4923.3789      303.15576    
      7000  -29841.906      4798.4578      92474.412     -127448.97      5132.651       303.21777    
      7500  -29828.132      4707.3467      92721.062     -127454.17      4904.977       297.4604     
      8000  -29795.133      4874.2661      92725.639     -127446.13      4925.3618      308.00815    
      8500  -29760.209      4802.2145      92762.203     -127444.02      4921.6105      303.45516    
      9000  -29798.979      4739.3309      92585.5       -127448.19      5063.7115      299.48151    
      9500  -29808.954      4765.0075      92788.922     -127447.71      4849.8346      301.10403    
     10000  -29592.892      4772.152       93202.044     -127450.2       4655.2689      301.55549    
     10500  -29882.417      4802.0246      92538.498     -127448.71      5027.7999      303.44316    
     11000  -29773.386      4815.7001      92721.893     -127446.56      4951.2775      304.30733    
     11500  -29843.235      4830.5669      92769.213     -127453.92      4841.4712      305.24677    
     12000  -29949.354      4800.3774      92550.135     -127449.21      4949.7218      303.33907    
     12500  -29797.372      4728.3514      92778.563     -127442.7       4866.7617      298.7877     
     13000  -29786.185      4813.9864      92701.383     -127446.12      4958.5554      304.19904    
     13500  -29719.316      4812.2356      92870.403     -127446.66      4856.9459      304.0884     
     14000  -29745.269      4738.4527      92868.932     -127443.01      4828.8056      299.42601    
     14500  -29935.946      4794.5814      92539.334     -127448.36      4973.0788      302.97282    
     15000  -29836.313      4691.617       92674.18      -127446.63      4936.138       296.46643    
     15500  -29862.893      4711.2655      92673.177     -127456.31      4920.2429      297.70803    
     16000  -29736.455      4911.4277      92767.727     -127448.25      4944.0634      310.35642    
     16500  -29816.734      4784.7119      92700.416     -127448.09      4930.9385      302.34916    
     17000  -29837.539      4742.0183      92531.035     -127441.88      5073.3056      299.65132    
     17500  -29643.252      4725.3402      92761.373     -127444.26      5039.6384      298.59742    
     18000  -29716.887      4666.7661      92887.673     -127452.57      4848.0129      294.89609    
     18500  -29867.544      4840.6048      92686.336     -127447.48      4893.6002      305.88107    
     19000  -29779.15       4677.8423      92843.38      -127454.24      4831.7064      295.596      
     19500  -29717.387      4676.9783      92767.564     -127444.2       4959.2515      295.5414     
     20000  -29744.61       4751.4155      92806.455     -127446.66      4895.5992      300.24514    
Loop time of 607.979 on 30 procs for 20000 steps with 9401 atoms

Performance: 5.684 ns/day, 4.222 hours/ns, 32.896 timesteps/s, 309.254 katom-step/s
94.5% CPU use with 30 MPI tasks x 1 OpenMP threads

MPI task timing breakdown:
Section |  min time  |  avg time  |  max time  |%varavg| %total
---------------------------------------------------------------
Pair    | 47.295     | 104.4      | 158.19     | 276.9 | 17.17
Bond    | 0.012432   | 0.024677   | 0.03663    |   3.8 |  0.00
Kspace  | 139.25     | 192.38     | 249.16     | 204.0 | 31.64
Neigh   | 43.678     | 44.014     | 44.37      |   2.7 |  7.24
Comm    | 15.328     | 17.378     | 18.9       |  25.7 |  2.86
Output  | 0.60248    | 0.79937    | 0.99701    |  13.4 |  0.13
Modify  | 246.61     | 248.11     | 249.2      |   4.1 | 40.81
Other   |            | 0.87       |            |       |  0.14

Nlocal:        313.367 ave         362 max         262 min
Histogram: 1 2 7 4 3 0 2 3 5 3
Nghost:        7719.63 ave        9530 max        6061 min
Histogram: 12 0 0 0 0 0 8 4 0 6
Neighs:         213756 ave      262605 max      121725 min
Histogram: 5 1 0 0 0 0 3 10 7 4

Total # of neighbors = 6412670
Ave neighs/atom = 682.12637
Ave special neighs/atom = 1.6919477
Neighbor list builds = 1928
Dangerous builds = 1320
    unfix conp1
    fix conp2 lower electrode/conp 0.5 2.925 couple upper -0.5
1440 atoms in group conp_group
    fix_modify conp2 tf 1 ${l_tf} ${d}
    fix_modify conp2 tf 1 3 ${d}
    fix_modify conp2 tf 1 3 6.81038626666667
    fix_modify conp2 tf 6 ${l_tf} ${d}
    fix_modify conp2 tf 6 3 ${d}
    fix_modify conp2 tf 6 3 6.81038626666667
    run         200000 # 400 ps
PPPM/electrode initialization ...
  using 12-bit tables for long-range coulomb (src/kspace.cpp:342)
  G vector (1/distance) = 0.23783319
  grid = 40 45 100
  stencil order = 5
  estimated absolute RMS force accuracy = 0.00036351848
  estimated relative force accuracy = 1.0947251e-06
  using double precision FFTW3
  3d grid and FFT values/proc = 45144 22200
Generated 15 of 15 mixed pair_coeff terms from arithmetic mixing rule
WARNING: Neighbor exclusions used with KSpace solver may give inconsistent Coulombic energies (src/neighbor.cpp:654)
Neighbor list info ...
  update: every = 1 steps, delay = 10 steps, check = yes
  max neighbors/atom: 2000, page size: 100000
  master list distance cutoff = 16
  ghost atom cutoff = 16
  binsize = 8, bins = 6 6 7
  2 neighbor lists, perpetual/occasional/extra = 2 0 0
  (1) pair lj/cut/coul/long, perpetual
      attributes: half, newton on
      pair build: half/bin/newton
      stencil: half/bin/3d
      bin: standard
  (2) fix electrode/conp, perpetual, copy from (1)
      attributes: half, newton on
      pair build: copy
      stencil: none
      bin: none
Per MPI rank memory allocation (min/avg/max) = 28.61 | 29.13 | 30.84 Mbytes
   Step         PotEng         KinEng         E_coul         E_long         E_vdwl      c_watertemp  
     20000  -29742.441      4751.4155      92806.401     -127444.44      4895.5992      300.24514    
     20500  -29735.538      4789.1085      92968.63      -127436.62      4732.4489      302.62698    
     21000  -29753.344      4760.534       92763.041     -127450.07      4933.6872      300.82134    
     21500  -29666.289      4732.7481      92848.417     -127448.1       4933.3946      299.06553    
     22000  -29852.843      4632.935       92819.442     -127453.25      4780.9686      292.75827    
     22500  -29734.761      4703.6188      92847.931     -127445.13      4862.4363      297.22483    
     23000  -29788.652      4772.3989      92788.379     -127450.38      4873.3481      301.57109    
     23500  -29765.529      4731.7436      92838.956     -127444.5       4840.0176      299.00206    
     24000  -29810.667      4796.3788      92595.742     -127441.63      5035.2232      303.0864     
     24500  -29784.787      4769.3737      92840.077     -127451.4       4826.5326      301.37993    
     25000  -29647.173      4669.63        92968.643     -127451.17      4835.351       295.07706    
     25500  -29692.904      4841.6971      93075.149     -127445.47      4677.4152      305.9501     
     26000  -29822.509      4704.0134      92600.743     -127446.25      5023.0002      297.24977    
     26500  -29865.251      4756.3005      92837.006     -127442.96      4740.703       300.55383    
     27000  -29803.027      4774.4253      92722.462     -127438.99      4913.5004      301.69914    
     27500  -29885.581      4834.1183      92714.66      -127449.78      4849.5406      305.47118    
     28000  -29938.38       4774.3815      92643.784     -127449.49      4867.3273      301.69638    
     28500  -29978.386      4748.0261      92566.675     -127446.39      4901.3244      300.03096    
     29000  -29729.02       4682.375       92802.31      -127444.44      4913.1131      295.88242    
     29500  -29775.187      4704.0329      92950.291     -127445.11      4719.6274      297.251      
     30000  -29716.646      4793.2763      92855.035     -127446.46      4874.7814      302.89035    
     30500  -29783.243      4840.4882      92960.613     -127446.98      4703.1201      305.8737     
     31000  -29832.93       4680.5959      92898.023     -127450.2       4719.2417      295.77       
     31500  -29833.006      4720.5378      92715.248     -127452.77      4904.5196      298.29395    
     32000  -29803.913      4689.1787      92912.671     -127450.07      4733.4818      296.31235    
     32500  -29718.378      4778.355       92834.83      -127451.31      4898.1038      301.94746    
     33000  -29830.367      4824.7409      92678.439     -127449.98      4941.1741      304.87862    
     33500  -29747.582      4709.156       92998.849     -127449.96      4703.529       297.57473    
     34000  -29873.993      4683.0123      92672.9       -127447.95      4901.0551      295.9227     
     34500  -29652.86       4702.4719      92814.039     -127445.51      4978.6106      297.15236    
     35000  -29710.332      4755.2916      92837.416     -127442.8       4895.0559      300.49007    
     35500  -29734.77       4695.8677      92803.625     -127443.66      4905.2635      296.73503    
     36000  -29774.376      4747.064       92826.141     -127446.52      4846.0017      299.97017    
     36500  -29810.961      4693.3849      92782.383     -127446.25      4852.9106      296.57815    
     37000  -29819.689      4782.4939      92712.463     -127448.16      4916.0108      302.20901    
     37500  -29659.658      4801.2784      92893.904     -127449.14      4895.5816      303.39601    
     38000  -29887.983      4674.5936      92703.196     -127446.51      4855.3286      295.39071    
     38500  -29676.189      4702.6726      92864.586     -127445.09      4904.3126      297.16504    
     39000  -29704.71       4697.8326      92808.454     -127449.38      4936.2196      296.8592     
     39500  -29881.854      4776.089       92633.918     -127441.05      4925.2786      301.80428    
     40000  -29910.177      4719.4403      92611.498     -127447.15      4925.4765      298.2246     
     40500  -29835.101      4745.5552      92822.646     -127441.32      4783.569       299.87482    
     41000  -29774.126      4821.492       92689.468     -127443.07      4979.4738      304.67332    
     41500  -29791.506      4759.5868      92714.099     -127433.79      4928.1797      300.76149    
     42000  -29800.686      4671.2924      92528.138     -127440.05      5111.2235      295.1821     
     42500  -29759.788      4685.7451      92906.207     -127445.24      4779.2404      296.09538    
     43000  -29766.769      4846.6083      92814.654     -127442.01      4860.5834      306.26043    
     43500  -29891.676      4774.8791      92773.121     -127442.24      4777.4455      301.72782    
     44000  -29837.918      4825.0357      92768.163     -127446.05      4839.9714      304.89725    
     44500  -29820.085      4733.0569      92731.492     -127449.16      4897.5831      299.08505    
     45000  -29814.752      4722.7963      92730.543     -127443.18      4897.8843      298.43667    
     45500  -29871.167      4609.269       92688.294     -127449.83      4890.364       291.26281    
     46000  -29811.215      4736.0361      92725.826     -127449.01      4911.9694      299.27331    
     46500  -29875.084      4775.6716      92693.113     -127443.45      4875.2568      301.7779     
     47000  -29934.25       4726.5752      92698.383     -127445.68      4813.0464      298.67546    
     47500  -29842.535      4722.8174      92800.09      -127443.02      4800.3985      298.438      
     48000  -29770.158      4755.0814      92730.279     -127451.48      4951.0417      300.47679    
     48500  -29836.336      4760.6898      92893.226     -127448.01      4718.4505      300.83119    
     49000  -29753.826      4770.0249      92681.786     -127434.72      4999.1104      301.42108    
     49500  -29646.624      4721.3741      93000.59      -127446.74      4799.521       298.3468     
     50000  -29873.354      4806.7605      92617.734     -127449.41      4958.3177      303.74242    
     50500  -29775.806      4713.5526      92649.585     -127443.71      5018.3152      297.85255    
     51000  -29820.207      4696.2165      92771.946     -127446.78      4854.6238      296.75707    
     51500  -29779.81       4747.5169      92640.781     -127446.11      5025.5237      299.99878    
     52000  -29796.282      4687.2777      92639.99      -127441.27      5004.9974      296.19223    
     52500  -29707.316      4793.603       92854.456     -127445.02      4883.2452      302.911      
     53000  -29861.375      4701.2236      92773.911     -127443.82      4808.5298      297.07348    
     53500  -29769.638      4704.7133      92746.154     -127446.47      4930.6797      297.294      
     54000  -29799.604      4750.1524      92652.744     -127445.35      4992.9978      300.16532    
     54500  -29720.755      4758.4266      92946.799     -127449.64      4782.0865      300.68817    
     55000  -29856.435      4668.4803      92570.85      -127445.8       5018.5136      295.0044     
     55500  -29695.684      4806.6546      92833.626     -127445.42      4916.1118      303.73573    
     56000  -29596.511      4695.3527      93087.003     -127444.17      4760.6537      296.70249    
     56500  -29683.686      4629.0429      92831.311     -127450.96      4935.9676      292.51233    
     57000  -29723.667      4821.4962      92874.924     -127451.7       4853.1116      304.67358    
     57500  -29828.442      4727.6226      92732.645     -127440.11      4879.0251      298.74165    
     58000  -29829.699      4811.7182      92756.706     -127448.46      4862.0519      304.05571    
     58500  -29895.788      4678.9033      92575.939     -127444.24      4972.5101      295.66304    
     59000  -29842.387      4737.9927      92586.765     -127441.69      5012.5424      299.39694    
     59500  -29797.52       4721.6116      92718.292     -127444.7       4928.8843      298.36181    
     60000  -29768.594      4651.496       92743.098     -127440.94      4929.2509      293.93115    
     60500  -29599.176      4760.6052      93083.264     -127447.76      4765.3214      300.82584    
     61000  -29766.504      4658.5052      92837.625     -127446.94      4842.8065      294.37407    
     61500  -29748.232      4697.6858      92687.232     -127445.06      5009.5993      296.84992    
     62000  -29726.093      4725.8389      92823.856     -127450.1       4900.1531      298.62894    
     62500  -29734.699      4750.9335      92901.442     -127444.06      4807.9216      300.21468    
     63000  -29717.643      4723.4686      92813.526     -127448.27      4917.0964      298.47915    
     63500  -29752.523      4614.7153      92830.272     -127452.7       4869.9033      291.60696    
     64000  -29974.228      4746.3866      92565.608     -127445.51      4905.6781      299.92736    
     64500  -29881.101      4673.6712      92686.551     -127447.2       4879.5474      295.33242    
     65000  -29807.691      4665.2821      92710.326     -127449.21      4931.1911      294.80231    
     65500  -29936.516      4672.0995      92611.482     -127449.35      4901.3494      295.23311    
     66000  -29741.326      4800.7512      92911.448     -127445.56      4792.7907      303.36269    
     66500  -29785.754      4750.5804      92868.946     -127452.66      4797.9625      300.19237    
     67000  -29904.876      4811.1702      92610.662     -127447.68      4932.1397      304.02107    
     67500  -29833.123      4803.1633      92786.404     -127450.95      4831.4231      303.51511    
     68000  -29817.283      4690.7012      92748.644     -127447.63      4881.7005      296.40856    
     68500  -29885.637      4739.9454      92707.907     -127447.84      4854.2952      299.52033    
     69000  -29723.31       4817.6701      92920.847     -127443.52      4799.3674      304.43181    
     69500  -29684.55       4764.212       92797.813     -127446.65      4964.285       301.05376    
     70000  -29860.118      4700.4924      92790.285     -127451.58      4801.1799      297.02727    
     70500  -29710.605      4721.7355      92896.115     -127448.32      4841.5997      298.36964    
     71000  -29716.812      4694.8457      92803.821     -127441.16      4920.5264      296.67045    
     71500  -29699.428      4736.9688      92966.315     -127449.1       4783.3577      299.33224    
     72000  -29757.538      4708.0616      92902.575     -127447.83      4787.7198      297.50557    
     72500  -29694.834      4799.1446      92850.584     -127450.64      4905.2233      303.26117    
     73000  -29840.411      4704.523       92714.502     -127446.42      4891.5101      297.28197    
     73500  -29861.498      4744.7725      92749.033     -127442.62      4832.0911      299.82536    
     74000  -29628.267      4752.6735      92938.63      -127447.25      4880.3571      300.32463    
     74500  -29908.786      4756.5205      92728.323     -127445.68      4808.5664      300.56772    
     75000  -29668.142      4718.3473      92929.477     -127440.03      4842.4121      298.15554    
     75500  -29758.622      4782.2424      92906.922     -127447.61      4782.0664      302.19311    
     76000  -29829.758      4741.1199      92800.596     -127451.4       4821.0421      299.59455    
     76500  -29747.164      4802.2952      92925.392     -127446.94      4774.3865      303.46026    
     77000  -29855.5        4785.0948      92629.167     -127449.83      4965.1672      302.37336    
     77500  -29798.363      4783.9176      92825.747     -127454.6       4830.4913      302.29897    
     78000  -29885.849      4753.7654      92633.389     -127453.96      4934.724       300.39363    
     78500  -29953.309      4832.8843      92652.903     -127450.15      4843.9353      305.3932     
     79000  -29831.166      4775.3295      92703.977     -127448.44      4913.2991      301.75628    
     79500  -29704.795      4710.957       92887.011     -127444.18      4852.3717      297.68854    
     80000  -29725.413      4734.0539      92824.26      -127451.48      4901.8034      299.14805    
     80500  -29702.51       4688.6933      92768.763     -127452.14      4980.864       296.28168    
     81000  -29866.525      4884.5099      92743.536     -127451.32      4841.2552      308.65546    
     81500  -29949.829      4772.6869      92555.851     -127449.46      4943.7796      301.58929    
     82000  -29715.531      4890.7779      92826.53      -127442.86      4900.7966      309.05154    
     82500  -29759.547      4604.6431      92624.379     -127449.53      5065.6074      290.97049    
     83000  -29848.546      4738.3973      92665.468     -127454.28      4940.2619      299.42251    
     83500  -29972.745      4768.4947      92472.797     -127451.29      5005.749       301.32438    
     84000  -29800.248      4779.695       92786.482     -127445.93      4859.1967      302.03214    
     84500  -29803.007      4770.0499      92606.189     -127443.71      5034.5107      301.42266    
     85000  -29833.39       4769.1291      92806.767     -127444.58      4804.4249      301.36447    
     85500  -29898.898      4769.3919      92650.514     -127446.58      4897.1726      301.38108    
     86000  -29754.983      4694.0921      92834.402     -127445.03      4855.6467      296.62283    
     86500  -29745.036      4725.568       92934.453     -127450.08      4770.5914      298.61182    
     87000  -29770.858      4708.1041      92796.662     -127441.75      4874.2305      297.50826    
     87500  -30013.574      4733.1627      92412.739     -127453.86      5027.5452      299.09173    
     88000  -29776.948      4727.181       92724.44      -127447.93      4946.5414      298.71374    
     88500  -29787.392      4775.0571      92798.853     -127440.57      4854.3229      301.73907    
     89000  -29930.154      4774.8437      92526.206     -127446.61      4990.2452      301.72558    
     89500  -29769.002      4743.1941      92708.238     -127446.38      4969.1434      299.72562    
     90000  -29887.526      4863.6584      92542.76      -127444.31      5014.029       307.33784    
     90500  -29795.254      4761.4841      92608.883     -127444.88      5040.7446      300.88138    
     91000  -29830.05       4753.9643      92663.497     -127448.13      4954.581       300.4062     
     91500  -29901.346      4740.9554      92548.67      -127447.85      4997.8316      299.58416    
     92000  -29888.962      4710.0497      92850.241     -127453.56      4714.3512      297.63121    
     92500  -29874.099      4841.1305      92605.362     -127446.54      4967.0823      305.91429    
     93000  -29770.34       4883.7904      92840.872     -127450.92      4839.7086      308.61       
     93500  -29830.478      4725.9744      92815.36      -127443.96      4798.1225      298.6375     
     94000  -29828.932      4755.88        92589.412     -127451.57      5033.2218      300.52725    
     94500  -29722.746      4684.8141      92812.078     -127449.57      4914.7502      296.03655    
     95000  -29715.107      4799.5216      92696.362     -127443.11      5031.638       303.285      
     95500  -29802.294      4746.1977      92923.345     -127454.53      4728.8909      299.91542    
     96000  -29740.209      4759.701       92885.783     -127451.82      4825.8253      300.76871    
     96500  -29758.396      4756.6551      92900.111     -127443.76      4785.2504      300.57623    
     97000  -29720.451      4770.0343      92607.648     -127443.36      5115.2659      301.42167    
     97500  -29843.395      4699.4031      92585.222     -127445.66      5017.0454      296.95844    
     98000  -29762.447      4744.7715      92711.298     -127449.3       4975.5556      299.8253     
     98500  -29755.518      4682.6635      92759.737     -127453.62      4938.3667      295.90065    
     99000  -29679.966      4807.2478      92992.743     -127454.09      4781.381       303.77322    
     99500  -29854.182      4725.1011      92718.057     -127449.74      4877.5059      298.58231    
    100000  -29766.004      4729.2449      92877.216     -127448.95      4805.7251      298.84416    
    100500  -29812.55       4697.8781      92738.554     -127448.07      4896.9628      296.86208    
    101000  -29635.68       4798.3899      92886.313     -127440.41      4918.4213      303.21348    
    101500  -29747.471      4761.581       93052.87      -127444.36      4644.0207      300.8875     
    102000  -29874.149      4769.1512      92675.746     -127454.71      4904.8145      301.36587    
    102500  -29829.152      4742.5842      92569.953     -127446.48      5047.3771      299.68708    
    103000  -29747.906      4813.7203      92868.017     -127437.14      4821.2174      304.18222    
    103500  -29705.35       4694.1487      92810.563     -127446.83      4930.9159      296.62641    
    104000  -29753.932      4649.0778      92758.146     -127440.55      4928.4689      293.77835    
    104500  -29676.889      4770.7099      92816.879     -127445.83      4952.0604      301.46437    
    105000  -29641.766      4761.5287      92777.502     -127442.07      5022.8034      300.8842     
    105500  -29717.658      4696.4243      93025.397     -127450.19      4707.1333      296.77021    
    106000  -29658.31       4676.4222      92858.272     -127439.24      4922.6599      295.50626    
    106500  -29680.044      4816.7078      93031.021     -127448.13      4737.064       304.371      
    107000  -29817.892      4745.4767      92774.053     -127443.74      4851.794       299.86986    
    107500  -29669.979      4694.7173      92869.616     -127450.07      4910.4759      296.66234    
    108000  -29654.77       4763.4533      92953.774     -127445.53      4836.9913      301.00582    
    108500  -29866.961      4729.2001      92662.589     -127448.03      4918.4794      298.84133    
    109000  -29739.444      4803.0523      92672.831     -127443.54      5031.2612      303.5081     
    109500  -29683.92       4775.4249      92943.748     -127447.07      4819.4         301.7623     
    110000  -29852.815      4770.3265      92610.186     -127454.61      4991.6058      301.44014    
    110500  -29833.988      4787.8406      92606.149     -127447.85      5007.7107      302.54686    
    111000  -29684.441      4760.3497      92889.01      -127441.87      4868.4226      300.80969    
    111500  -29659.218      4749.8993      92956.825     -127447.5       4831.456       300.14933    
    112000  -29825.76       4745.6534      92725.485     -127448.95      4897.7029      299.88103    
    112500  -29692.83       4764.467       92982.658     -127444.21      4768.7221      301.06987    
    113000  -29795.94       4760.6546      92765.232     -127441.25      4880.0745      300.82896    
    113500  -29648.804      4774.8516      92973.525     -127446.47      4824.1439      301.72608    
    114000  -29780.553      4690.8434      92691.005     -127450.13      4978.5703      296.41754    
    114500  -29815.447      4757.1397      92790.319     -127442.78      4837.0135      300.60686    
    115000  -29807.881      4724.1853      92724.829     -127444.64      4911.9264      298.52444    
    115500  -29774.553      4676.4769      92840.286     -127443         4828.1615      295.50972    
    116000  -29900.066      4728.6224      92571.893     -127443.6       4971.6362      298.80483    
    116500  -29842.207      4757.094       92594.088     -127446.9       5010.601       300.60396    
    117000  -29696.698      4737.3632      92705.367     -127440.79      5038.7229      299.35716    
    117500  -29793.173      4746.4982      92621.529     -127445.98      5031.2744      299.93441    
    118000  -29870.438      4868.295       92700.265     -127446.03      4875.3321      307.63083    
    118500  -29766.534      4777.6267      92766.56      -127445.54      4912.4488      301.90144    
    119000  -29699.914      4755.1494      92899.636     -127447.81      4848.257       300.48109    
    119500  -29797.745      4717.7491      92628.573     -127450.74      5024.4163      298.11774    
    120000  -29771.356      4650.4816      92929.791     -127438.44      4737.2898      293.86706    
    120500  -29781.758      4687.6704      92640.407     -127456.33      5034.1615      296.21704    
    121000  -29741.554      4715.7742      92868.167     -127442.33      4832.6121      297.99294    
    121500  -29747.669      4871.8921      92763.993     -127441.71      4930.0467      307.85814    
    122000  -29925.503      4772.2729      92628.11      -127442.71      4889.0973      301.56313    
    122500  -29777.678      4765.851       92810.457     -127446.25      4858.1149      301.15733    
    123000  -29752.903      4841.7449      92892.55      -127450.3       4804.8422      305.95311    
    123500  -29759.774      4707.7846      92907.443     -127445.22      4778.0003      297.48807    
    124000  -29751.114      4693.2559      92891.81      -127446.4       4803.4737      296.56999    
    124500  -29761.837      4663.6093      92988.363     -127457.87      4707.6666      294.69661    
    125000  -29817.59       4796.8599      92657.136     -127446.45      4971.7201      303.1168     
    125500  -29652.327      4719.3842      93004.549     -127445.24      4788.3685      298.22106    
    126000  -29737.966      4746.444       92972.77      -127450.95      4740.2144      299.93099    
    126500  -29809.792      4739.7844      92862.779     -127446.25      4773.6746      299.51016    
    127000  -29752.817      4748.0693      92730.311     -127446.28      4963.1549      300.03369    
    127500  -29942.376      4669.426       92565.272     -127445.38      4937.7297      295.06417    
    128000  -29898.661      4774.3844      92712.262     -127441.99      4831.0622      301.69656    
    128500  -29804.692      4654.5316      92675.665     -127449.52      4969.1649      294.12298    
    129000  -29872.58       4751.614       92681.954     -127451.41      4896.8723      300.25768    
    129500  -29779.253      4772.7121      92846.732     -127443.55      4817.5612      301.59088    
    130000  -29791.764      4806.0985      92944.355     -127452.12      4716.0055      303.70059    
    130500  -29949.852      4770.7434      92531.563     -127448.2       4966.7875      301.46648    
    131000  -29814.882      4784.3328      92694.052     -127444.99      4936.0581      302.3252     
    131500  -29853.365      4735.9996      92801.181     -127439.59      4785.0428      299.271      
    132000  -29799.322      4718.5899      92841.932     -127449.04      4807.7856      298.17086    
    132500  -29827.993      4735.0692      92601.648     -127451.44      5021.7969      299.21221    
    133000  -29722.392      4713.814       92923.945     -127444.81      4798.4712      297.86907    
    133500  -29851.878      4686.4049      92759.275     -127452.94      4841.7827      296.13707    
    134000  -29831.038      4709.4226      92679.707     -127452.13      4941.3884      297.59158    
    134500  -29746.022      4743.7348      92799.979     -127441.93      4895.9276      299.75979    
    135000  -29692.59       4788.6569      92812.624     -127453.37      4948.1556      302.59845    
    135500  -29858.266      4770.6756      92882.076     -127454.06      4713.7155      301.4622     
    136000  -29741.67       4736.826       92935.539     -127450.34      4773.1317      299.32322    
    136500  -29901.743      4831.1125      92612.122     -127455.44      4941.5747      305.28124    
    137000  -29886.546      4806.7512      92630.557     -127446.62      4929.5127      303.74184    
    137500  -29896.939      4846.8887      92758.865     -127448.28      4792.4754      306.27815    
    138000  -29900.131      4777.5162      92688.929     -127451.29      4862.231       301.89446    
    138500  -29880.292      4820.8784      92654.587     -127451.23      4916.3529      304.63454    
    139000  -29822.193      4720.4133      92668.161     -127456.08      4965.727       298.28609    
    139500  -29868.625      4686.7026      92921.58      -127445.02      4654.8155      296.15588    
    140000  -29774.893      4744.8138      92965.785     -127451.97      4711.2934      299.82797    
    140500  -29740.419      4795.1527      92859.223     -127455.37      4855.7284      303.00892    
    141000  -29860.863      4634.7569      92798.973     -127445.88      4786.0427      292.8734     
    141500  -29777.759      4700.7549      92706.113     -127445.86      4961.9885      297.04386    
    142000  -29677.156      4681.6415      92859.485     -127445.71      4909.0673      295.83607    
    142500  -29707.045      4724.708       92922.311     -127447.59      4818.2314      298.55747    
    143000  -29716.907      4683.9285      92800.44      -127441.45      4924.0995      295.98059    
    143500  -29793.691      4749.1399      92713.828     -127442.5       4934.9801      300.10134    
    144000  -29813.281      4660.5658      92764.724     -127452.12      4874.1105      294.50428    
    144500  -29858.328      4793.02        92661.634     -127441.5       4921.5389      302.87416    
    145000  -29721.087      4734.0754      92842.744     -127444.58      4880.7491      299.1494     
    145500  -29670.076      4690.5443      93049.909     -127449.83      4729.8443      296.39865    
    146000  -29856.946      4806.9061      92778.447     -127450.68      4815.2862      303.75162    
    146500  -29665.774      4786.8454      93015.335     -127439.02      4757.9162      302.48398    
    147000  -29671.276      4782.5989      92982.751     -127446.46      4792.4292      302.21564    
    147500  -29930.347      4816.4863      92603.694     -127455.29      4921.2462      304.35701    
    148000  -29727.521      4790.6858      92808.926     -127450.32      4913.8685      302.72666    
    148500  -29879.645      4768.1118      92695.114     -127448.61      4873.8493      301.30019    
    149000  -29787.605      4847.3495      92718.612     -127446.23      4940.0167      306.30727    
    149500  -29751.945      4703.1291      92885.979     -127446.54      4808.6142      297.19389    
    150000  -29877.991      4808.2386      92600.479     -127442.7       4964.2338      303.83583    
    150500  -29777.009      4789.8034      92624.785     -127454.02      5052.2269      302.6709     
    151000  -29724.575      4765.9428      92880.212     -127443.97      4839.1869      301.16313    
    151500  -29780.639      4792.6763      92867.708     -127444.3       4795.9577      302.85244    
    152000  -29750.642      4765.992       92826.218     -127449.4       4872.5443      301.16623    
    152500  -29836.888      4750.0429      92620.35      -127454.17      4996.9266      300.1584     
    153000  -29625.961      4625.8187      93084.119     -127437.3       4727.2174      292.30859    
    153500  -29709.019      4717.9947      93093.539     -127446.96      4644.3995      298.13326    
    154000  -29711.208      4859.0816      92902.037     -127439.43      4826.1882      307.04863    
    154500  -29649.909      4796.1293      92916.396     -127442.22      4875.9152      303.07063    
    155000  -29698.353      4694.8692      93006.108     -127449.07      4744.6134      296.67194    
    155500  -29772.858      4791.6299      92795.139     -127447.61      4879.6136      302.78631    
    156000  -29765.924      4726.2877      92884.53      -127442.75      4792.2985      298.6573     
    156500  -29846.54       4715.0967      92832.72      -127442.1       4762.8405      297.95013    
    157000  -29848.717      4828.3573      92631.661     -127457.26      4976.8847      305.10714    
    157500  -29842.111      4716.7784      92644.476     -127448.82      4962.2343      298.0564     
    158000  -29677.504      4755.7763      93021.168     -127456.34      4757.6632      300.5207     
    158500  -29783.361      4740.6943      92755.722     -127446.93      4907.8506      299.56766    
    159000  -29883.766      4787.4755      92535.736     -127452.66      5033.159       302.5238     
    159500  -29664.517      4762.3163      92957.588     -127446.38      4824.276       300.93397    
    160000  -29898.451      4748.5793      92588.333     -127443.92      4957.1329      300.06592    
    160500  -29827.338      4669.9555      92603.175     -127445.69      5015.174       295.09763    
    161000  -29835.675      4773.0239      92622.479     -127439.49      4981.334       301.61058    
    161500  -29930.608      4769.0544      92656.103     -127444.14      4857.4333      301.35975    
    162000  -29733.863      4748.3305      92815.214     -127445.53      4896.4539      300.05019    
    162500  -29743.203      4678.4196      92771.426     -127448.23      4933.5989      295.63248    
    163000  -29841.091      4788.7034      92734.677     -127445.82      4870.0501      302.60138    
    163500  -29674.46       4669.9859      92868.185     -127443.89      4901.2473      295.09954    
    164000  -29627.913      4780.2291      93021.451     -127445.47      4796.1069      302.06589    
    164500  -29725.008      4633.2727      92682.577     -127445.82      5038.2348      292.77961    
    165000  -29745.291      4756.6923      92871.455     -127451.7       4834.9549      300.57858    
    165500  -29767.866      4754.17        92728.041     -127440.23      4944.3278      300.4192     
    166000  -29866.047      4762.3846      92740.734     -127457.59      4850.8122      300.93828    
    166500  -29885.874      4839.9805      92503.245     -127445.86      5056.7387      305.84162    
    167000  -29710.944      4749.0922      92842.41      -127454.45      4901.1001      300.09833    
    167500  -29828.429      4738.9557      92758.294     -127451.64      4864.9177      299.4578     
    168000  -29740.09       4775.1734      92989.268     -127440.17      4710.8163      301.74641    
    168500  -29752.606      4773.8417      92855.467     -127451.36      4843.2914      301.66227    
    169000  -29755.835      4738.1423      92852.938     -127444.12      4835.3449      299.4064     
    169500  -29817.535      4691.946       92720.841     -127443.91      4905.5365      296.48722    
    170000  -29818.728      4755.7119      92666.789     -127442.63      4957.1115      300.51663    
    170500  -29693.727      4717.6504      92879.215     -127444.5       4871.56        298.1115     
    171000  -29667.24       4682.0867      93079.211     -127446.53      4700.0838      295.86421    
    171500  -29860.695      4762.5107      92624.542     -127449.66      4964.4198      300.94625    
    172000  -29863.013      4682.6844      92799.447     -127445.15      4782.6909      295.90197    
    172500  -29801.626      4685.8863      92707.375     -127443.54      4934.5403      296.10431    
    173000  -29713.293      4707.2047      92984.218     -127444.27      4746.7597      297.45143    
    173500  -29713.636      4700.7903      92971.22      -127440.84      4755.9858      297.0461     
    174000  -29816.835      4720.6018      92740.486     -127444.91      4887.5907      298.298      
    174500  -29702.561      4764.9732      92878.844     -127445.89      4864.4869      301.10186    
    175000  -29929.743      4718.7062      92551.968     -127448.9       4967.1928      298.17822    
    175500  -29744.638      4742.0189      92776.986     -127436.51      4914.8894      299.65136    
    176000  -29745.062      4794.5263      92993.137     -127443.35      4705.1471      302.96934    
    176500  -29934.748      4774.5503      92684.584     -127442.77      4823.4384      301.70704    
    177000  -29841.707      4701.9253      92672.398     -127440.31      4926.2083      297.11782    
    177500  -29880.67       4725.5226      92690.866     -127444.33      4872.7906      298.60895    
    178000  -29829.271      4774.3978      92683.602     -127451.51      4938.6359      301.69741    
    178500  -29907.5        4716.0112      92657.371     -127445.09      4880.2178      298.00791    
    179000  -29839.688      4793.8779      92597.252     -127434.1       4997.1594      302.92837    
    179500  -29748.234      4653.2559      92912.958     -127445.9       4784.7113      294.04236    
    180000  -29765.935      4750.6         92907.233     -127446.41      4773.2458      300.19361    
    180500  -29717.556      4759.7451      92683.685     -127447.38      5046.1437      300.77149    
    181000  -29684.898      4815.6348      92938.009     -127445.29      4822.3825      304.3032     
    181500  -29905.674      4718.1248      92593.12      -127444.83      4946.0324      298.14148    
    182000  -29713.294      4806.5979      92812.362     -127454.02      4928.367       303.73215    
    182500  -29702.099      4709.1196      92810.968     -127450.96      4937.8891      297.57243    
    183000  -29694.75       4679.8816      92900.242     -127448.06      4853.0635      295.72486    
    183500  -29707.96       4807.6479      92726.099     -127445.62      5011.5637      303.7985     
    184000  -29794.139      4758.7555      92716.61      -127444.82      4934.0714      300.70896    
    184500  -29782.883      4835.5271      92728.92      -127438.79      4926.9887      305.5602     
    185000  -29801.433      4674.6652      92776.857     -127446.28      4867.9877      295.39523    
    185500  -29833.925      4656.0983      92539.865     -127443.35      5069.5605      294.22198    
    186000  -29781.344      4803.0719      92751.46      -127438.58      4905.7762      303.50934    
    186500  -29859.438      4754.1004      92522.573     -127433.56      5051.5508      300.4148     
    187000  -29872.586      4704.6899      92691.173     -127451.94      4888.1852      297.29251    
    187500  -29862.241      4750.5413      92663.741     -127455.08      4929.1018      300.1899     
    188000  -29703.81       4763.2977      92806.126     -127455.01      4945.0743      300.99598    
    188500  -29917.254      4753.2607      92484.28      -127454.57      5053.0365      300.36174    
    189000  -29816.931      4763.5134      92853.907     -127453.38      4782.5468      301.00961    
    189500  -29767.533      4738.8366      92701.496     -127455.07      4986.0415      299.45027    
    190000  -29850.152      4673.9984      92628.468     -127445.68      4967.0642      295.3531     
    190500  -29841.048      4719.4803      92688.338     -127448.91      4919.5268      298.22713    
    191000  -29856.086      4806.6842      92627.405     -127440.5       4957.0076      303.7376     
    191500  -29704.497      4804.7466      93038.35      -127440.99      4698.148       303.61517    
    192000  -29927.987      4770.8853      92589.752     -127441.35      4923.6148      301.47544    
    192500  -29864.744      4776.6193      92694.279     -127442         4882.9794      301.83778    
    193000  -29760.199      4714.8699      92784.252     -127442.88      4898.4275      297.9358     
    193500  -29795.695      4720.1927      92803.82      -127440.78      4841.2615      298.27215    
    194000  -29746.962      4795.7293      92953.779     -127441.49      4740.745       303.04536    
    194500  -29861.618      4773.8969      92733.154     -127450.93      4856.1593      301.66575    
    195000  -29660.419      4679.4114      93102.079     -127437.37      4674.8677      295.69515    
    195500  -29704.456      4709.6888      92745.872     -127444.26      4993.9333      297.6084     
    196000  -29732.562      4759.6248      92659.047     -127443.16      5051.5523      300.76389    
    196500  -29812.258      4705.614       92597.429     -127448.92      5039.2293      297.35091    
    197000  -29815.29       4724.1636      92787.56      -127443.41      4840.5633      298.52307    
    197500  -29752.404      4787.4455      92846.93      -127453         4853.6689      302.5219     
    198000  -29760.497      4737.6383      92680.031     -127446.67      5006.1399      299.37455    
    198500  -29686.25       4764.852       92969.944     -127451.11      4794.9213      301.0942     
    199000  -29632.605      4770.5094      93035.619     -127453.89      4785.6707      301.45169    
    199500  -29781.473      4817.375       92707.534     -127448.32      4959.3174      304.41316    
    200000  -29779.087      4769.3995      92882.118     -127446.2       4784.9947      301.38156    
    200500  -29751.694      4790.5823      92673.267     -127444.08      5019.1148      302.72011    
    201000  -29888.946      4788.5684      92605.527     -127446.38      4951.904       302.59286    
    201500  -29902.875      4713.8828      92645.415     -127450.88      4902.5871      297.87342    
    202000  -29753.578      4832.6981      92841.973     -127453.9       4858.3518      305.38144    
    202500  -29710.388      4715.1025      92909.48      -127448.58      4828.7101      297.95049    
    203000  -29794.442      4757.9854      92751.241     -127449.2       4903.5159      300.66029    
    203500  -29782.686      4809.5491      92872.004     -127457.4       4802.7094      303.91864    
    204000  -29752.424      4766.6335      92833.812     -127443.52      4857.2844      301.20677    
    204500  -29839.537      4741.1706      92696.743     -127447.84      4911.5623      299.59775    
    205000  -29865.741      4804.7576      92661.764     -127449.64      4922.135       303.61586    
    205500  -29811.748      4760.1181      92757.603     -127452.82      4883.4713      300.79506    
    206000  -29806.081      4715.2798      92751.853     -127445.09      4887.1527      297.9617     
    206500  -29772.234      4699.678       92729.923     -127447.65      4945.4968      296.97581    
    207000  -29741.333      4792.4044      92767.884     -127446.44      4937.2192      302.83525    
    207500  -29804.911      4776.5794      92819.865     -127443.95      4819.1734      301.83526    
    208000  -29985.463      4837.597       92623.105     -127453.79      4845.2175      305.691      
    208500  -29841.529      4746.7545      92698.637     -127443.05      4902.8828      299.9506     
    209000  -29864.054      4855.813       92643.566     -127442.43      4934.8061      306.84209    
    209500  -29747.337      4742.1406      92720.615     -127444.04      4976.0925      299.65905    
    210000  -29845.506      4720.8519      92689.28      -127444.98      4910.1978      298.3138     
    210500  -29696.88       4725.0301      92959.29      -127442.09      4785.9175      298.57783    
    211000  -29835.926      4815.2904      92617.805     -127446.68      4992.9511      304.28144    
    211500  -29797.02       4706.2543      92593.721     -127451.73      5060.9864      297.39137    
    212000  -29733.213      4611.9157      92776.941     -127452.45      4942.3         291.43005    
    212500  -29770.338      4787.3057      92723.626     -127447.76      4953.7919      302.51307    
    213000  -29729.914      4839.5594      92832.347     -127447.46      4885.2018      305.81501    
    213500  -29745.124      4627.1812      92819.663     -127439.7       4874.9093      292.39469    
    214000  -29701.31       4732.7037      92901.153     -127447.17      4844.7098      299.06273    
    214500  -29761.4        4745.0743      92701.292     -127442.34      4979.6516      299.84443    
    215000  -29953.034      4742.759       92582.505     -127443.9       4908.361       299.69813    
    215500  -29894.545      4750.5587      92527.235     -127446.39      5024.6081      300.191      
    216000  -29802.651      4800.1972      92798.736     -127444.54      4843.15        303.32768    
    216500  -29765.558      4712.6109      92638.932     -127451.45      5046.9625      297.79305    
    217000  -29732.812      4726.7121      93097.211     -127447.16      4617.1388      298.68411    
    217500  -29949.169      4703.9897      92729.314     -127451.99      4773.5108      297.24827    
    218000  -29850.608      4798.0284      92690.884     -127452.57      4911.0787      303.19064    
    218500  -29850.847      4736.1062      92676.522     -127447.21      4919.8384      299.27774    
    219000  -29881.07       4763.3754      92667.38      -127445.31      4896.8612      301.00089    
    219500  -29787.377      4854.5582      92638         -127449.79      5024.4164      306.7628     
    220000  -29824.742      4744.0673      92807.923     -127447.28      4814.6184      299.7808     
Loop time of 5635.07 on 30 procs for 200000 steps with 9401 atoms

Performance: 6.133 ns/day, 3.913 hours/ns, 35.492 timesteps/s, 333.661 katom-step/s
94.2% CPU use with 30 MPI tasks x 1 OpenMP threads

MPI task timing breakdown:
Section |  min time  |  avg time  |  max time  |%varavg| %total
---------------------------------------------------------------
Pair    | 505.82     | 1011       | 1299.4     | 696.7 | 17.94
Bond    | 0.12985    | 0.24174    | 0.36134    |  11.1 |  0.00
Kspace  | 1460.8     | 1742.5     | 2253       | 532.1 | 30.92
Neigh   | 405.21     | 407.77     | 411.41     |   7.9 |  7.24
Comm    | 152.2      | 168.81     | 187.46     |  67.4 |  3.00
Output  | 6.0813     | 8.0455     | 9.9766     |  41.4 |  0.14
Modify  | 2277.2     | 2288.5     | 2297.2     |  11.2 | 40.61
Other   |            | 8.21       |            |       |  0.15

Nlocal:        313.367 ave         362 max         263 min
Histogram: 3 3 5 4 3 0 0 1 5 6
Nghost:         7652.9 ave        9404 max        6016 min
Histogram: 12 0 0 0 0 0 1 11 0 6
Neighs:         212643 ave      262655 max      126013 min
Histogram: 4 2 0 0 0 3 3 7 7 4

Total # of neighbors = 6379288
Ave neighs/atom = 678.57547
Ave special neighs/atom = 1.6919477
Neighbor list builds = 19303
Dangerous builds = 13212
    #write_data structure.data
    undump alldump
    next l
    unfix conp2
    jump SELF loop_start
    variable l_tf equal ${l}/2
    variable l_tf equal 7/2
    # fix id group1 electrode/conp psi1 eta couple group2 psi2 write_inv
    # fix conp1 lower electrode/conp 0.0 5 couple upper 0.0 write_inv inv.out etypes 1*6 # Write call to not have to determine the matrix twice
    fix conp1 lower electrode/conp 0.0 2.925 couple upper 0.0# Write call to not have to determine the matrix twice
1440 atoms in group conp_group
    fix_modify conp1 tf 1 ${l_tf} ${d}
    fix_modify conp1 tf 1 3.5 ${d}
    fix_modify conp1 tf 1 3.5 6.81038626666667
    fix_modify conp1 tf 6 ${l_tf} ${d}
    fix_modify conp1 tf 6 3.5 ${d}
    fix_modify conp1 tf 6 3.5 6.81038626666667
    # fix conp1 lower electrode/conp 0.0 5 couple upper 0.0 read_inv inv.out # Write call to not have to determine the matrix twice

    # ======== equilibrate for ? ns ========
    reset_timestep 0
    thermo 50
    # dump equilxtc h2o xtc 50 equil.xtc
    run 500 # 1 ps, ~ correlation time of spce water
PPPM/electrode initialization ...
  using 12-bit tables for long-range coulomb (src/kspace.cpp:342)
  G vector (1/distance) = 0.2378332
  grid = 40 45 100
  stencil order = 5
  estimated absolute RMS force accuracy = 0.00036351884
  estimated relative force accuracy = 1.0947262e-06
  using double precision FFTW3
  3d grid and FFT values/proc = 45144 22200
Generated 15 of 15 mixed pair_coeff terms from arithmetic mixing rule
WARNING: Neighbor exclusions used with KSpace solver may give inconsistent Coulombic energies (src/neighbor.cpp:654)
Neighbor list info ...
  update: every = 1 steps, delay = 10 steps, check = yes
  max neighbors/atom: 2000, page size: 100000
  master list distance cutoff = 16
  ghost atom cutoff = 16
  binsize = 8, bins = 6 6 7
  2 neighbor lists, perpetual/occasional/extra = 2 0 0
  (1) pair lj/cut/coul/long, perpetual
      attributes: half, newton on
      pair build: half/bin/newton
      stencil: half/bin/3d
      bin: standard
  (2) fix electrode/conp, perpetual, copy from (1)
      attributes: half, newton on
      pair build: copy
      stencil: none
      bin: none
Per MPI rank memory allocation (min/avg/max) = 27.35 | 27.86 | 29.57 Mbytes
   Step         PotEng         KinEng         E_coul         E_long         E_vdwl      c_watertemp  
         0  -29823.724      4744.0673      92806.859     -127445.2       4814.6184      299.7808     
        50  -29818.194      4803.8971      92827.53      -127447.1       4801.3801      303.56148    
       100  -29733.653      4764.3202      92975.484     -127450.01      4740.8731      301.06059    
       150  -29694.32       4751.9438      92961.666     -127456.37      4800.3834      300.27852    
       200  -29810.631      4876.9918      92698.231     -127449.32      4940.4592      308.18039    
       250  -29759.742      4803.0635      92762.524     -127444.4       4922.1306      303.50881    
       300  -29719.145      4700.7591      93071.678     -127450.73      4659.903       297.04413    
       350  -29812.296      4735.585       92894.794     -127445.21      4738.1196      299.2448     
       400  -29873.208      4760.8809      92719.237     -127453.85      4861.405       300.84326    
       450  -29864.936      4730.0087      92679.908     -127450.76      4905.9125      298.89243    
       500  -29906.979      4762.0083      92743.299     -127447.32      4797.0421      300.91451    
Loop time of 13.538 on 30 procs for 500 steps with 9401 atoms

Performance: 6.382 ns/day, 3.761 hours/ns, 36.933 timesteps/s, 347.208 katom-step/s
94.1% CPU use with 30 MPI tasks x 1 OpenMP threads

MPI task timing breakdown:
Section |  min time  |  avg time  |  max time  |%varavg| %total
---------------------------------------------------------------
Pair    | 1.2438     | 2.5041     | 3.4761     |  45.7 | 18.50
Bond    | 0.00029642 | 0.00059445 | 0.00092561 |   0.0 |  0.00
Kspace  | 3.0426     | 4.0025     | 5.2787     |  36.2 | 29.57
Neigh   | 0.98428    | 0.99119    | 0.99852    |   0.4 |  7.32
Comm    | 0.36629    | 0.40267    | 0.44933    |   3.7 |  2.97
Output  | 0.001053   | 0.0010775  | 0.0014715  |   0.2 |  0.01
Modify  | 5.5881     | 5.6158     | 5.6398     |   0.6 | 41.48
Other   |            | 0.01998    |            |       |  0.15

Nlocal:        313.367 ave         364 max         259 min
Histogram: 1 2 6 6 3 0 0 3 2 7
Nghost:         7645.5 ave        9339 max        6027 min
Histogram: 12 0 0 0 0 0 0 12 0 6
Neighs:         212626 ave      259173 max      125354 min
Histogram: 3 3 0 0 0 2 6 3 8 5

Total # of neighbors = 6378781
Ave neighs/atom = 678.52154
Ave special neighs/atom = 1.6919477
Neighbor list builds = 48
Dangerous builds = 33

    write_dump solvent xyz water_ions.xyz
    write_data equilibrated_structure.data
System init for write_data ...
PPPM/electrode initialization ...
  using 12-bit tables for long-range coulomb (src/kspace.cpp:342)
  G vector (1/distance) = 0.23783319
  grid = 40 45 100
  stencil order = 5
  estimated absolute RMS force accuracy = 0.00036351843
  estimated relative force accuracy = 1.0947249e-06
  using double precision FFTW3
  3d grid and FFT values/proc = 45144 22200
Generated 15 of 15 mixed pair_coeff terms from arithmetic mixing rule
WARNING: Neighbor exclusions used with KSpace solver may give inconsistent Coulombic energies (src/neighbor.cpp:654)

    ## ======== production run ========


    reset_timestep 0
    # Dump to also show the changing charge of the walls
    dump alldump all custom 50 wallcharge_${l_tf}.lammpstrj id type x y z q
    dump alldump all custom 50 wallcharge_3.5.lammpstrj id type x y z q
    thermo 500 # frequency log file
    #
    variable doutx equal 50 # 0.1ps
    #
    #dump xtc all xtc ${doutx} traj.xtc
    run 20000
PPPM/electrode initialization ...
  using 12-bit tables for long-range coulomb (src/kspace.cpp:342)
  G vector (1/distance) = 0.23783319
  grid = 40 45 100
  stencil order = 5
  estimated absolute RMS force accuracy = 0.00036351843
  estimated relative force accuracy = 1.0947249e-06
  using double precision FFTW3
  3d grid and FFT values/proc = 45144 22200
Generated 15 of 15 mixed pair_coeff terms from arithmetic mixing rule
WARNING: Neighbor exclusions used with KSpace solver may give inconsistent Coulombic energies (src/neighbor.cpp:654)
Per MPI rank memory allocation (min/avg/max) = 27.35 | 27.86 | 29.57 Mbytes
   Step         PotEng         KinEng         E_coul         E_long         E_vdwl      c_watertemp  
         0  -29906.979      4762.0083      92743.297     -127447.32      4797.0421      300.91451    
       500  -29877.485      4817.1645      92579.043     -127455.3       4998.7709      304.39986    
      1000  -29809.343      4743.3684      92810.909     -127445.61      4825.3565      299.73663    
      1500  -29801.918      4795.7149      92773.636     -127445.61      4870.06        303.04445    
      2000  -29939.199      4861.4571      92737.479     -127449.32      4772.6404      307.19874    
      2500  -29831.711      4771.4048      92635.3       -127442.98      4975.9681      301.50828    
      3000  -29818.455      4806.5534      92883.667     -127454.23      4752.1041      303.72934    
      3500  -29778.91       4815.9347      92803.489     -127447.05      4864.6553      304.32215    
      4000  -29816.888      4757.0797      92836.667     -127446.26      4792.7028      300.60306    
      4500  -29773.962      4759.4202      92712.094     -127454.44      4968.383       300.75096    
      5000  -29811.33       4732.537       92695.732     -127443.42      4936.3621      299.05219    
      5500  -29743.631      4648.7228      92842.388     -127455.56      4869.5411      293.75592    
      6000  -29737.193      4754.2943      92843.592     -127449.19      4868.4051      300.42705    
      6500  -29679.136      4742.1135      92802.927     -127445.23      4963.1673      299.65734    
      7000  -29829.335      4773.2474      92780.463     -127443.14      4833.3395      301.62471    
      7500  -29700.156      4804.4641      92936.269     -127446.84      4810.417       303.59731    
      8000  -29882.657      4724.9392      92600.471     -127444.61      4961.4856      298.57208    
      8500  -29797.255      4683.0425      92876.27      -127444.11      4770.589       295.9246     
      9000  -29832.459      4787.5144      92619.144     -127449.31      4997.7101      302.52625    
      9500  -29889.909      4656.0815      92751.973     -127450.14      4808.2603      294.22092    
     10000  -29687.109      4783.0714      92815.761     -127444.81      4941.942       302.24549    
     10500  -29837.176      4723.5786      92535.547     -127446.68      5073.9519      298.48611    
     11000  -29781.317      4796.8026      92779.882     -127445.31      4884.1089      303.11318    
     11500  -29685.366      4769.5729      92998.345     -127450.86      4767.1463      301.39251    
     12000  -29798.015      4753.7177      92854.763     -127451.19      4798.4074      300.39062    
     12500  -29850.92       4828.1175      92743.831     -127452.49      4857.7346      305.09199    
     13000  -29717.373      4712.3881      92848.667     -127451.18      4885.1359      297.77897    
     13500  -29890.332      4714.1584      92676.089     -127450.52      4884.0977      297.89084    
     14000  -29723.14       4673.7215      92854.423     -127450.37      4872.8017      295.3356     
     14500  -29783.014      4792.5639      92705.208     -127450.25      4962.0302      302.84533    
     15000  -29935.714      4816.4685      92452.674     -127446.96      5058.5731      304.35588    
     15500  -29797.97       4751.8091      92706.911     -127454.14      4949.2634      300.27001    
     16000  -29658.196      4759.185       93078.11      -127447.38      4711.0762      300.7361     
     16500  -29810.492      4760.8819      92679.067     -127443.76      4954.2033      300.84333    
     17000  -29814.535      4685.9623      92734.313     -127446.79      4897.9445      296.1091     
     17500  -29846.98       4756.2552      92638.015     -127450.92      4965.9225      300.55096    
     18000  -29890.764      4707.6965      92725.77      -127446.9       4830.368       297.4825     
     18500  -29917.948      4759.6839      92646.976     -127447.53      4882.6039      300.76762    
     19000  -29881.917      4739.4225      92578.462     -127441.81      4981.4269      299.48729    
     19500  -29734.296      4791.4628      92820.568     -127445.93      4891.0623      302.77576    
     20000  -29768.381      4774.2762      92771.791     -127443.38      4903.2052      301.68972    
Loop time of 556.891 on 30 procs for 20000 steps with 9401 atoms

Performance: 6.206 ns/day, 3.867 hours/ns, 35.914 timesteps/s, 337.624 katom-step/s
94.2% CPU use with 30 MPI tasks x 1 OpenMP threads

MPI task timing breakdown:
Section |  min time  |  avg time  |  max time  |%varavg| %total
---------------------------------------------------------------
Pair    | 48.63      | 100.41     | 133.78     | 238.4 | 18.03
Bond    | 0.010673   | 0.023176   | 0.036935   |   4.2 |  0.00
Kspace  | 138.32     | 171.22     | 222.88     | 183.0 | 30.75
Neigh   | 38.641     | 38.95      | 39.28      |   2.6 |  6.99
Comm    | 14.295     | 16.398     | 18.187     |  25.0 |  2.94
Output  | 0.59659    | 0.77463    | 0.9491     |  12.0 |  0.14
Modify  | 227.06     | 228.3      | 229.35     |   3.7 | 40.99
Other   |            | 0.8148     |            |       |  0.15

Nlocal:        313.367 ave         362 max         274 min
Histogram: 2 9 5 2 0 0 1 4 4 3
Nghost:        7672.93 ave        9419 max        5994 min
Histogram: 12 0 0 0 0 0 5 7 0 6
Neighs:         213465 ave      261393 max      120288 min
Histogram: 5 1 0 0 0 0 2 12 4 6

Total # of neighbors = 6403936
Ave neighs/atom = 681.19732
Ave special neighs/atom = 1.6919477
Neighbor list builds = 1929
Dangerous builds = 1317
    unfix conp1
    fix conp2 lower electrode/conp 0.5 2.925 couple upper -0.5
1440 atoms in group conp_group
    fix_modify conp2 tf 1 ${l_tf} ${d}
    fix_modify conp2 tf 1 3.5 ${d}
    fix_modify conp2 tf 1 3.5 6.81038626666667
    fix_modify conp2 tf 6 ${l_tf} ${d}
    fix_modify conp2 tf 6 3.5 ${d}
    fix_modify conp2 tf 6 3.5 6.81038626666667
    run         200000 # 400 ps
PPPM/electrode initialization ...
  using 12-bit tables for long-range coulomb (src/kspace.cpp:342)
  G vector (1/distance) = 0.23783319
  grid = 40 45 100
  stencil order = 5
  estimated absolute RMS force accuracy = 0.00036351842
  estimated relative force accuracy = 1.0947249e-06
  using double precision FFTW3
  3d grid and FFT values/proc = 45144 22200
Generated 15 of 15 mixed pair_coeff terms from arithmetic mixing rule
WARNING: Neighbor exclusions used with KSpace solver may give inconsistent Coulombic energies (src/neighbor.cpp:654)
Neighbor list info ...
  update: every = 1 steps, delay = 10 steps, check = yes
  max neighbors/atom: 2000, page size: 100000
  master list distance cutoff = 16
  ghost atom cutoff = 16
  binsize = 8, bins = 6 6 7
  2 neighbor lists, perpetual/occasional/extra = 2 0 0
  (1) pair lj/cut/coul/long, perpetual
      attributes: half, newton on
      pair build: half/bin/newton
      stencil: half/bin/3d
      bin: standard
  (2) fix electrode/conp, perpetual, copy from (1)
      attributes: half, newton on
      pair build: copy
      stencil: none
      bin: none
Per MPI rank memory allocation (min/avg/max) = 28.62 | 29.13 | 30.84 Mbytes
   Step         PotEng         KinEng         E_coul         E_long         E_vdwl      c_watertemp  
     20000  -29766.306      4774.2762      92772.677     -127442.19      4903.2052      301.68972    
     20500  -29828.964      4723.3371      92812.064     -127454.36      4813.3271      298.47085    
     21000  -29822.21       4788.7218      92732.258     -127448.5       4894.0342      302.60255    
     21500  -29691.39       4668.5605      92923.949     -127448.08      4832.7361      295.00947    
     22000  -29815.943      4651.6461      92618.712     -127446.07      5011.4168      293.94064    
     22500  -29849.252      4722.8954      92736.994     -127449.77      4863.5276      298.44293    
     23000  -29778.851      4810.5862      92748.175     -127446.86      4919.8346      303.98417    
     23500  -29815.54       4752.2753      92762.96      -127444.57      4866.0691      300.29947    
     24000  -29643.583      4820.6681      92921.88      -127448.51      4883.0449      304.62125    
     24500  -29589.437      4690.3002      93093.605     -127450.7       4767.6575      296.38322    
     25000  -29670.162      4717.9114      92958.329     -127447.79      4819.2968      298.12799    
     25500  -29846.912      4743.5739      92636.321     -127445.36      4962.1259      299.74962    
     26000  -29913.56       4683.6127      92643.658     -127453.68      4896.4656      295.96063    
     26500  -29785.315      4774.8772      92853.328     -127450.96      4812.3141      301.7277     
     27000  -29823.164      4689.2175      92785.711     -127446.82      4837.9446      296.3148     
     27500  -29882.653      4778.8752      92694.557     -127451.18      4873.9733      301.98034    
     28000  -29849.816      4733.3803      92641.062     -127444.08      4953.1979      299.10548    
     28500  -29694.323      4753.9252      92954.678     -127451.79      4802.7918      300.40373    
     29000  -29927.467      4738.3934      92556.745     -127448.53      4964.3154      299.42226    
     29500  -29854.648      4781.482       92874.288     -127446.77      4717.8368      302.14506    
     30000  -29763.977      4720.1854      92765.302     -127448.56      4919.2775      298.27168    
     30500  -29814.227      4705.6379      92632.571     -127446.69      4999.888       297.35242    
     31000  -29831.179      4775.8453      92700.419     -127448.35      4916.7523      301.78887    
     31500  -29813.637      4644.9681      92612.632     -127448.69      5022.4197      293.51866    
     32000  -29734.176      4781.4106      92900.199     -127453.07      4818.6901      302.14055    
     32500  -29661.557      4760.536       92886.555     -127447.17      4899.0578      300.82147    
     33000  -29880.921      4793.3627      92647.206     -127449.15      4921.025       302.89581    
     33500  -29814.847      4743.9488      92752.121     -127454.14      4887.1761      299.77331    
     34000  -29703.841      4718.2022      92918.787     -127439.39      4816.7571      298.14637    
     34500  -29793.48       4814.0601      92704.098     -127457.86      4960.286       304.20369    
     35000  -29773.495      4630.8613      93000.672     -127450.13      4675.9641      292.62724    
     35500  -29720.781      4777.2046      92749.893     -127454.82      4984.1503      301.87477    
     36000  -29607.084      4750.9354      92847.49      -127442.09      4987.5165      300.2148     
     36500  -29656.181      4742.256       93022.321     -127447.79      4769.2857      299.66635    
     37000  -29779.661      4717.452       92723.976     -127446.46      4942.8256      298.09896    
     37500  -29830.729      4803.1509      92768.729     -127449.12      4849.6663      303.51433    
     38000  -29862.38       4728.226       92640.561     -127448.94      4946.0028      298.77978    
     38500  -29682.408      4748.2057      93007.267     -127441.63      4751.9519      300.04231    
     39000  -29777.378      4744.3242      92801.704     -127445.15      4866.0676      299.79704    
     39500  -29855.697      4807.7069      92681.066     -127441.97      4905.2073      303.80223    
     40000  -29915.76       4713.2074      92573.71      -127444.98      4955.5054      297.83074    
     40500  -29716.86       4668.4871      93012.461     -127437.16      4707.841       295.00484    
     41000  -29605.168      4620.6049      93231.877     -127449.18      4612.1304      291.97913    
     41500  -29597.519      4851.5506      93081.764     -127448.21      4768.9284      306.57274    
     42000  -29766.532      4671.9928      92772.799     -127444.9       4905.5701      295.22636    
     42500  -29837.27       4867.5352      92780.875     -127443.79      4825.6473      307.58282    
     43000  -29822.059      4778.707       92939.851     -127445.98      4684.0735      301.96971    
     43500  -29872.239      4755.7602      92771.569     -127445.27      4801.4584      300.51968    
     44000  -29665.16       4691.0053      92927.907     -127441.29      4848.2263      296.42777    
     44500  -29752.693      4703.3435      92864.572     -127442.54      4825.2704      297.20743    
     45000  -29710.892      4717.5702      92937.212     -127441.25      4793.1444      298.10643    
     45500  -29728.877      4797.993       92761.601     -127449.54      4959.061       303.1884     
     46000  -29701.671      4807.5014      92754.085     -127446.96      4991.2053      303.78924    
     46500  -29802.387      4809.9312      92870.549     -127447.72      4774.7793      303.94278    
     47000  -29701.652      4653.959       92953.568     -127445.95      4790.7328      294.0868     
     47500  -29685.977      4835.1995      93067.764     -127447.07      4693.332       305.53951    
     48000  -29812.849      4787.7096      92597.142     -127444.71      5034.7154      302.53859    
     48500  -29724.964      4728.3196      92994.295     -127439.99      4720.7262      298.78569    
     49000  -29807.392      4700.6364      92763.449     -127444.18      4873.3438      297.03637    
     49500  -29831.901      4819.3909      92757.74      -127438.81      4849.1668      304.54055    
     50000  -29670.452      4764.9018      92866.71      -127453.33      4916.1684      301.09734    
     50500  -29802.537      4816.3607      92556.501     -127449.36      5090.3198      304.34907    
     51000  -29803.869      4717.8451      92800.874     -127449.23      4844.4855      298.1238     
     51500  -29722.063      4778.1073      92874.881     -127447.15      4850.2104      301.93181    
     52000  -29709.907      4693.8906      92797.712     -127453.33      4945.7069      296.6101     
     52500  -29690.993      4693.3569      93058.401     -127445.24      4695.8457      296.57638    
     53000  -29803.061      4818.7707      92651.601     -127447.49      4992.829       304.50136    
     53500  -29742.922      4859.6131      92783.553     -127447.5       4921.0288      307.08221    
     54000  -29819.804      4725.7338      92644.867     -127447.68      4983.0108      298.62229    
     54500  -29868.753      4738.3344      92726.724     -127440.72      4845.2474      299.41854    
     55000  -29626.512      4795.9422      93026.029     -127444.51      4791.9725      303.05881    
     55500  -29720.464      4765.0861      92861.367     -127447.46      4865.6295      301.10899    
     56000  -29799.83       4794.7353      92770.323     -127446.53      4876.3717      302.98255    
     56500  -29629.835      4744.7708      92910.094     -127449.77      4909.8435      299.82526    
     57000  -29684.645      4747.2973      93006.164     -127449.02      4758.2117      299.9849     
     57500  -29721.758      4754.4344      92948.322     -127452.41      4782.3315      300.4359     
     58000  -29740.208      4691.6723      92855.14      -127449.87      4854.5212      296.46992    
     58500  -29674.591      4709.4841      93014.26      -127446.37      4757.5193      297.59546    
     59000  -29791.404      4654.5646      92913.494     -127452.4       4747.5012      294.12506    
     59500  -29726.896      4742.3305      92813.54      -127448.09      4907.655       299.67105    
     60000  -29649.838      4747.7417      92921.666     -127443.51      4872.0056      300.01299    
     60500  -29689.748      4757.3434      92876.078     -127455.14      4889.3125      300.61973    
     61000  -29639.287      4747.0932      92965.423     -127440.34      4835.6314      299.97201    
     61500  -29882.616      4755.4621      92681.648     -127449.52      4885.2564      300.50085    
     62000  -29784.305      4713.8812      92856.291     -127449.27      4808.6746      297.87332    
     62500  -29698.486      4749.2237      92796.069     -127447.05      4952.4962      300.10663    
     63000  -29775.969      4697.4395      92868.904     -127449.35      4804.4809      296.83436    
     63500  -29950.138      4789.6802      92526.513     -127447.15      4970.496       302.66311    
     64000  -29793.675      4736.7772      92689.528     -127445.79      4962.5894      299.32013    
     64500  -29871.936      4766.3652      92657.02      -127451.38      4922.4202      301.18982    
     65000  -29892.933      4817.5181      92581.098     -127444.8       4970.7715      304.4222     
     65500  -29824.765      4780.4907      92707.827     -127447.67      4915.0765      302.08242    
     66000  -29767.509      4813.0776      92789.652     -127447.57      4890.4142      304.14161    
     66500  -29822.324      4740.2265      92763.942     -127453.44      4867.17        299.5381     
     67000  -29717.264      4772.3225      92778.542     -127440.73      4944.9241      301.56627    
     67500  -29701.325      4670.4963      92826.896     -127450.13      4921.9114      295.1318     
     68000  -29834.31       4692.7886      92576.026     -127448.26      5037.9282      296.54046    
     68500  -29920.244      4684.0291      92609.838     -127440.4       4910.3208      295.98695    
     69000  -29795.02       4744.9665      92703.566     -127448.32      4949.7367      299.83762    
     69500  -29837.627      4729.3572      92719.168     -127445.69      4888.8938      298.85126    
     70000  -29883.858      4722.0982      92564.714     -127449.45      5000.8774      298.39256    
     70500  -29729.3        4787.578       92652.206     -127443.49      5061.985       302.53027    
     71000  -29844.49       4720.78        92735.291     -127448.33      4868.5492      298.30926    
     71500  -29862.626      4710.0952      92613.626     -127452.52      4976.2669      297.63408    
     72000  -29878.581      4789.529       92607.235     -127446.38      4960.5684      302.65355    
     72500  -29895.765      4772.5916      92549.561     -127445.75      5000.4262      301.58327    
     73000  -29912.969      4708.0526      92622.111     -127454.05      4918.969       297.50501    
     73500  -29751.801      4766.6981      92770.686     -127454.81      4932.3201      301.21086    
     74000  -29716.938      4695.9937      93063.195     -127444.49      4664.3606      296.743      
     74500  -29840.317      4729.9079      92755.781     -127449.11      4853.0094      298.88606    
     75000  -29712.366      4677.9964      93020.59      -127439.96      4707.0036      295.60573    
     75500  -29875.438      4820.6223      92732.858     -127450.22      4841.9211      304.61836    
     76000  -29722.046      4787.0605      92903.567     -127452.56      4826.9462      302.49757    
     76500  -29844.911      4799.1161      92517.386     -127440.62      5078.327       303.25937    
     77000  -29862.901      4769.9902      92535.598     -127447.99      5049.4864      301.41888    
     77500  -29848.923      4779.9989      92664.34      -127446.2       4932.9385      302.05134    
     78000  -29678.268      4730.6447      92938.439     -127450.52      4833.8079      298.93262    
     78500  -29805.903      4741.0025      92710.853     -127445.81      4929.052       299.58713    
     79000  -29725.326      4687.4232      92918.338     -127447.01      4803.3451      296.20142    
     79500  -29816.64       4725.1575      92723.377     -127443.24      4903.2193      298.58588    
     80000  -29790.838      4812.0925      92781.61      -127447.76      4875.3118      304.07936    
     80500  -29792.965      4785.6688      92714.279     -127448.45      4941.2062      302.40962    
     81000  -29653.379      4749.6001      92861.558     -127444.85      4929.9077      300.13042    
     81500  -29776.242      4714.0663      92770.081     -127445.04      4898.7161      297.88501    
     82000  -29752.469      4758.933       93072.228     -127448.72      4624.021       300.72018    
     82500  -29869.102      4805.7233      92611.006     -127441.32      4961.2168      303.67689    
     83000  -29924.067      4699.0395      92498.592     -127447.69      5025.0344      296.93546    
     83500  -29855.446      4718.4571      92655.664     -127443.74      4932.6316      298.16247    
     84000  -29808.892      4769.7569      92844.436     -127439.75      4786.422       301.40415    
     84500  -29752.73       4661.9496      92776.593     -127444         4914.6767      294.59173    
     85000  -29798.187      4769.5187      92610.81      -127444.66      5035.6656      301.38909    
     85500  -29746.02       4780.9821      92950.515     -127452.39      4755.8586      302.11347    
     86000  -29804.961      4721.9609      92878.76      -127445.98      4762.2616      298.38388    
     86500  -29747.561      4659.9674      92913.379     -127452.37      4791.4268      294.46647    
     87000  -29864.493      4727.9705      92812.077     -127451.02      4774.4535      298.76363    
     87500  -29931.661      4750.4332      92561.869     -127439.66      4946.1321      300.18307    
     88000  -29996.601      4735.7511      92587.573     -127452.96      4868.7903      299.25529    
     88500  -29889.984      4811.7331      92555.078     -127449.23      5004.1636      304.05665    
     89000  -29959.6        4744.4962      92561.033     -127445.19      4924.5556      299.8079     
     89500  -29814.353      4674.2406      92845.303     -127450.7       4791.0449      295.36841    
     90000  -29739.784      4650.4035      92870.857     -127451.82      4841.18        293.86212    
     90500  -29745.875      4732.6118      92928.083     -127446.39      4772.4276      299.05692    
     91000  -30024.514      4706.9147      92431.594     -127455.5       4999.3935      297.4331     
     91500  -29751.01       4793.7371      92879.414     -127449.9       4819.4784      302.91947    
     92000  -29792.684      4787.2467      92730.877     -127442.84      4919.276       302.50934    
     92500  -29678.823      4700.7135      92818.774     -127450.51      4952.9131      297.04124    
     93000  -29870.498      4590.157       92589.184     -127450.3       4990.6185      290.05511    
     93500  -29755.793      4735.5223      92861.519     -127445.48      4828.1728      299.24083    
     94000  -29726.925      4757.245       93011.268     -127441.71      4703.5182      300.61351    
     94500  -29721.528      4743.3877      92847.705     -127448.15      4878.9172      299.73785    
     95000  -29822.559      4721.0911      92666.5       -127445.28      4956.2199      298.32892    
     95500  -29689.688      4782.2944      92943.568     -127446.57      4813.3136      302.1964     
     96000  -29822.425      4763.4811      92623.293     -127452.67      5006.9479      301.00757    
     96500  -29721.081      4756.7533      93061.655     -127450.69      4667.9556      300.58244    
     97000  -29789.548      4797.2733      92784.124     -127447.22      4873.543       303.14292    
     97500  -29826.754      4686.7486      92792.548     -127449.37      4830.0714      296.15879    
     98000  -29975.7        4782.4606      92570.762     -127439.49      4893.0228      302.2069     
     98500  -29761.341      4720.2028      92862.833     -127448.95      4824.7772      298.27279    
     99000  -29828.44       4700.0165      92709.698     -127447.91      4909.7744      296.9972     
     99500  -29870.385      4747.3482      92553.852     -127448.33      5024.0945      299.98812    
    100000  -29816.103      4775.9776      92830.961     -127447.73      4800.6621      301.79723    
    100500  -29802.798      4831.9383      92698.748     -127452.38      4950.8359      305.33343    
    101000  -29742.422      4875.5167      92717.858     -127452.69      4992.4104      308.08718    
    101500  -29734.145      4776.9984      92820.933     -127450.51      4895.431       301.86174    
    102000  -29905.459      4768.5315      92596.435     -127448.13      4946.2367      301.32671    
    102500  -29935.865      4750.0038      92679.623     -127447.55      4832.0646      300.15593    
    103000  -29930.404      4637.097       92531.937     -127454.55      4992.2117      293.02127    
    103500  -29797.826      4749.8542      92629.173     -127449.56      5022.5636      300.14648    
    104000  -29553.289      4705.708       93078.267     -127449.76      4818.2027      297.35685    
    104500  -29834.3        4741.894       92830.456     -127449.59      4784.8379      299.64347    
    105000  -29886.551      4791.3115      92610.761     -127444.38      4947.0694      302.76619    
    105500  -29649.738      4706.865       93050.219     -127447.02      4747.0592      297.42996    
    106000  -29785.438      4766.7344      92653.891     -127455.69      5016.3653      301.21315    
    106500  -29810.003      4758.1368      92608.292     -127441.99      5023.6937      300.66986    
    107000  -29809.418      4736.1412      92790.402     -127447.73      4847.9081      299.27995    
    107500  -29825.091      4665.3371      92608.396     -127440.9       5007.4123      294.80579    
    108000  -29701.634      4686.8955      92760.241     -127441.15      4979.2727      296.16808    
    108500  -29778.949      4693.8074      92902.224     -127451.54      4770.3694      296.60484    
    109000  -29694.272      4749.179       92847.461     -127440.29      4898.5569      300.10381    
    109500  -29863.686      4588.5534      92638.418     -127445.35      4943.2467      289.95377    
    110000  -29909.388      4773.0873      92672.106     -127449.75      4868.255       301.61459    
    110500  -29762.318      4702.8162      92865.339     -127447.81      4820.1539      297.17412    
    111000  -29757.818      4692.0316      92867.706     -127448.86      4823.3386      296.49263    
    111500  -29664.292      4800.9482      92957.864     -127448.7       4826.5482      303.37514    
    112000  -29663.14       4832.8458      92958.692     -127449.11      4827.2784      305.39077    
    112500  -29801.3        4722.6362      92818.58      -127442.79      4822.9054      298.42655    
    113000  -29812.58       4775.7779      92910.642     -127447.97      4724.7485      301.78461    
    113500  -29757.388      4770.2072      92857.413     -127446.69      4831.8878      301.4326     
    114000  -29647.447      4742.5009      92855.356     -127448.41      4945.6112      299.68182    
    114500  -29843.088      4732.9774      92636.107     -127440.19      4960.9949      299.08002    
    115000  -29818.589      4684.9405      92731.501     -127447.53      4897.44        296.04454    
    115500  -29738.536      4723.1182      92724.849     -127442.09      4978.702       298.45701    
    116000  -29821.256      4791.8478      92540.3       -127446.1       5084.5407      302.80008    
    116500  -29862.996      4725.6856      92835.327     -127446.71      4748.3903      298.61925    
    117000  -29746.879      4759.6444      92970.169     -127447.48      4730.4285      300.76513    
    117500  -29766.543      4810.865       92916.498     -127442.64      4759.6         304.00179    
    118000  -29621.741      4718.8128      92981.322     -127450.33      4847.2658      298.18495    
    118500  -29647.604      4841.1696      93157.72      -127449.45      4644.1216      305.91676    
    119000  -29787.057      4653.6915      92727.439     -127446.5       4932.0086      294.06989    
    119500  -29830.543      4691.6665      92684.939     -127448.21      4932.7282      296.46956    
    120000  -29743.652      4701.0608      92866.495     -127450.12      4839.9713      297.06319    
    120500  -29627.7        4807.6817      93033.784     -127435.34      4773.8576      303.80063    
    121000  -29801.31       4664.8876      92753.506     -127444.04      4889.2237      294.77738    
    121500  -29778.531      4774.0818      92743.734     -127448.47      4926.2053      301.67744    
    122000  -29783.114      4708.1708      92780.341     -127453.81      4890.3566      297.51248    
    122500  -29942.778      4714.7019      92522.118     -127445.86      4980.9626      297.92518    
    123000  -29907.366      4624.7868      92633.426     -127444.17      4903.3801      292.24339    
    123500  -29860.61       4792.6004      92792.734     -127441.92      4788.5718      302.84764    
    124000  -29631.799      4754.8392      93037.434     -127445.17      4775.9397      300.46148    
    124500  -29733.355      4723.7096      92833.016     -127443.73      4877.3631      298.49439    
    125000  -29673.63       4853.9991      92831.531     -127446.62      4941.4623      306.72747    
    125500  -29611.998      4739.4312      93031.119     -127442.38      4799.2604      299.48784    
    126000  -29721.491      4700.8095      92899.472     -127448.77      4827.8087      297.04731    
    126500  -29715.999      4695.1759      92813.661     -127450.81      4921.1486      296.69132    
    127000  -29605.889      4725.381       92997.536     -127449.5       4846.077       298.6        
    127500  -29747.555      4727.2259      92661.001     -127451.75      5043.1989      298.71658    
    128000  -29784.151      4723.9956      92825.955     -127448.72      4838.6087      298.51246    
    128500  -29787.301      4713.1748      92693.779     -127452.91      4971.8326      297.82868    
    129000  -29799.324      4767.8904      92811.202     -127446.66      4836.1369      301.2862     
    129500  -29703.554      4767.7017      92871.397     -127437.13      4862.175       301.27427    
    130000  -29647.673      4746.317       93003.786     -127446.3       4794.8415      299.92296    
    130500  -29812.187      4710.6391      92780.891     -127447.11      4854.0319      297.66845    
    131000  -29870.016      4734.9462      92617.995     -127448.47      4960.4545      299.20443    
    131500  -29795.801      4668.4789      92727.603     -127444.98      4921.5735      295.00432    
    132000  -29780.331      4745.6532      92856.63      -127449.63      4812.6644      299.88101    
    132500  -29768.3        4725.2546      92782.471     -127446.41      4895.6389      298.59201    
    133000  -29925.947      4688.1064      92648.28      -127446.83      4872.6078      296.24459    
    133500  -29917.139      4757.6974      92640.902     -127445.85      4887.8044      300.6421     
    134000  -29652.431      4696.4489      92836.072     -127444.95      4956.445       296.77176    
    134500  -29805.394      4729.4387      92706.561     -127449.83      4937.8764      298.85641    
    135000  -29882.992      4737.2859      92704.632     -127447.28      4859.6538      299.35228    
    135500  -29826.993      4660.2352      92678.663     -127451.67      4946.0123      294.4834     
    136000  -29573.919      4756.669       93061.591     -127455.38      4819.8675      300.57711    
    136500  -29793.759      4692.9807      92676.267     -127447.33      4977.3029      296.5526     
    137000  -29986.091      4696.7994      92452.676     -127448.51      5009.7456      296.79391    
    137500  -29909.859      4751.3229      92648.019     -127444.14      4886.2576      300.23929    
    138000  -29813.796      4760.8242      92728.307     -127447.66      4905.5622      300.83968    
    138500  -29795.128      4789.1002      92702.584     -127447.78      4950.0627      302.62646    
    139000  -29808.327      4836.8934      92663.729     -127453.96      4981.902       305.64655    
    139500  -29845.471      4718.6927      92632.231     -127448.25      4970.546       298.17736    
    140000  -29771.536      4656.6432      92642.142     -127442.64      5028.9628      294.25641    
    140500  -29665.162      4664.1415      92955.931     -127446.85      4825.7557      294.73024    
    141000  -29791.122      4686.4558      92734.857     -127446.46      4920.48        296.14029    
    141500  -29815.73       4727.9736      92750.594     -127440.8       4874.4775      298.76383    
    142000  -29743.721      4667.2886      92794.536     -127448.86      4910.6004      294.9291     
    142500  -29769.974      4755.9767      92940.999     -127450.44      4739.4654      300.53336    
    143000  -29823.325      4697.5236      92737.23      -127445.07      4884.516       296.83967    
    143500  -29840.355      4780.9894      92721.767     -127447.1       4884.9802      302.11393    
    144000  -29752.515      4794.0148      92983.302     -127448.7       4712.8807      302.93701    
    144500  -29849.388      4673.6094      92692.933     -127450.07      4907.7474      295.32852    
    145000  -29656.842      4643.002       92910.066     -127449.51      4882.5991      293.39441    
    145500  -29803.11       4729.8879      92754.638     -127451.65      4893.9032      298.88479    
    146000  -29665.278      4750.1918      92997.312     -127442.45      4779.8619      300.16781    
    146500  -29857.93       4810.6379      92680.121     -127442.36      4904.3105      303.98744    
    147000  -29710.812      4670.1892      93063.653     -127447.88      4673.4133      295.11239    
    147500  -29838.204      4663.5278      92737.932     -127443.31      4867.1756      294.69145    
    148000  -29691.179      4839.5206      92945.227     -127452.31      4815.9054      305.81256    
    148500  -29691.078      4715.233       92962.935     -127446.74      4792.7264      297.95874    
    149000  -29833.053      4746.3572      92793.534     -127451.37      4824.7779      299.9255     
    149500  -29737.598      4657.6572      92865.743     -127447.29      4843.9449      294.32049    
    150000  -29791.135      4742.4911      92880.822     -127446.29      4774.3326      299.6812     
    150500  -29688.798      4798.8327      92978.819     -127451.65      4784.0319      303.24146    
    151000  -29701.884      4675.191       92887.462     -127447.88      4858.5322      295.42846    
    151500  -29728.067      4697.3132      92938.116     -127440.74      4774.561       296.82637    
    152000  -29821.826      4696.0327      92648.201     -127445.46      4975.4371      296.74546    
    152500  -29702.63       4758.9759      92775.582     -127441.46      4963.2457      300.72288    
    153000  -29765.053      4735.871       92647.836     -127444.1       5031.216       299.26287    
    153500  -29760.415      4706.2933      92777.517     -127449.25      4911.3135      297.39383    
    154000  -29736.587      4825.887       92854.188     -127448.82      4858.0423      304.95104    
    154500  -29787.152      4720.9295      92639.011     -127446.8       5020.6396      298.3187     
    155000  -29810.065      4696.9403      92806.43      -127452.42      4835.9196      296.80281    
    155500  -29820.746      4717.2852      92640.492     -127442.71      4981.4711      298.08842    
    156000  -29719.496      4732.1334      92798.204     -127454.18      4936.4848      299.02669    
    156500  -29862.444      4674.5683      92552.953     -127442.3       5026.9006      295.38911    
    157000  -29848.045      4682.1648      92788.381     -127443.91      4807.4864      295.86914    
    157500  -29841.787      4697.8031      92579.976     -127447.95      5026.187       296.85734    
    158000  -29850.338      4782.2428      92783.673     -127446.45      4812.4416      302.19314    
    158500  -29773.426      4667.3964      92827.729     -127446.47      4845.3125      294.93592    
    159000  -29683.97       4891.794       92896.912     -127443.48      4862.6005      309.11575    
    159500  -29710.455      4687.3909      93015.798     -127448.15      4721.8928      296.19938    
    160000  -29873.173      4822.7295      92737.466     -127439.38      4828.7442      304.75152    
    160500  -29807.661      4852.5815      92615.269     -127457.04      5034.1136      306.63788    
    161000  -29755.975      4776.665       92782.083     -127447.65      4909.5911      301.84067    
    161500  -29746.45       4802.5884      92603.488     -127442.16      5092.2192      303.47879    
    162000  -30011.531      4633.0307      92371.297     -127440.03      5057.2022      292.76432    
    162500  -29957.852      4936.2409      92465.078     -127439.55      5016.625       311.92438    
    163000  -29843.956      4807.9196      92477.629     -127443.74      5122.1562      303.81567    
    163500  -29864.422      4793.2784      92613.072     -127445.02      4967.523       302.89048    
    164000  -29708.906      4768.439       92786.2       -127445.36      4950.2572      301.32086    
    164500  -29934.717      4794.653       92521.499     -127446.7       4990.4865      302.97734    
    165000  -29787.357      4736.0896      92690.231     -127449.87      4972.2812      299.27668    
    165500  -29831.917      4712.7491      92639.93      -127448.5       4976.6483      297.80178    
    166000  -29767.572      4725.0416      92866.161     -127445.89      4812.1534      298.57855    
    166500  -29686.712      4753.7566      93027.004     -127444.39      4730.6775      300.39307    
    167000  -29792.808      4690.4357      92681.077     -127453.58      4979.6933      296.39178    
    167500  -29743.916      4788.74        92983.512     -127448.99      4721.5638      302.6037     
    168000  -29861.155      4793.4602      92752.926     -127447.8       4833.7179      302.90197    
    168500  -29842.434      4688.851       92726.111     -127451.49      4882.9477      296.29164    
    169000  -29793.275      4767.0512      92611.912     -127441.56      5036.3727      301.23317    
    169500  -29649.029      4800.626       92939.725     -127444.34      4855.5896      303.35478    
    170000  -29820.849      4740.0769      92897.483     -127453.68      4735.345       299.52864    
    170500  -29746.123      4777.8062      92951.251     -127449.62      4752.2456      301.91279    
    171000  -29730.161      4726.1875      92836.719     -127451.62      4884.7438      298.65096    
    171500  -29854.005      4733.403       92670.584     -127448.53      4923.9449      299.10692    
    172000  -29795.643      4790.1196      92828.003     -127459.31      4835.6655      302.69088    
    172500  -29791.291      4822.1008      92909.6       -127449.31      4748.4186      304.71179    
    173000  -29739.682      4693.8514      92672.2       -127443.34      5031.4557      296.60762    
    173500  -29868.586      4783.6801      92711.712     -127451.99      4871.6927      302.28396    
    174000  -29877.671      4773.9337      92546.934     -127449.19      5024.5857      301.66808    
    174500  -30026.12       4758.9833      92541.471     -127452.14      4884.5462      300.72335    
    175000  -29816.505      4821.9303      92698.142     -127439.66      4925.0126      304.70102    
    175500  -29933.171      4843.4016      92559.479     -127443.2       4950.5468      306.0578     
    176000  -29867.802      4738.5643      92712.325     -127445.79      4865.6597      299.43306    
    176500  -29717.413      4738.1336      92779.518     -127451.31      4954.3807      299.40585    
    177000  -29699.993      4728.51        92702.245     -127445.91      5043.6745      298.79772    
    177500  -29856.373      4743.6607      92644.752     -127450.25      4949.1209      299.7551     
    178000  -29741.215      4730.9778      92789.061     -127447.32      4917.045       298.95366    
    178500  -29585.24       4754.2315      93005.1       -127449.29      4858.9478      300.42308    
    179000  -29874.357      4860.8021      92657.354     -127450.32      4918.6063      307.15735    
    179500  -29719.087      4689.3615      92767.715     -127449.31      4962.5061      296.32391    
    180000  -29904.501      4733.0851      92624.079     -127443.55      4914.9676      299.08683    
    180500  -29869.38       4765.8541      92641.372     -127449.72      4938.9672      301.15752    
    181000  -29743.135      4769.8446      92920.566     -127447.3       4783.5999      301.40969    
    181500  -29758.642      4807.7507      92716.84      -127445.72      4970.2378      303.80499    
    182000  -29583.827      4714.3923      93015.492     -127445.82      4846.4968      297.90562    
    182500  -29836.74       4701.0533      92750.697     -127444.03      4856.5949      297.06272    
    183000  -29858.991      4709.5142      92415.872     -127443.95      5169.0836      297.59737    
    183500  -29895.914      4661.6736      92544.175     -127448.19      5008.1018      294.57429    
    184000  -29868.01       4803.4437      92690.91      -127455.55      4896.6291      303.53284    
    184500  -29909.491      4693.8978      92563.211     -127449.85      4977.1458      296.61056    
    185000  -29807.747      4609.8083      92646.814     -127446.95      4992.3858      291.29688    
    185500  -29876.271      4834.0849      92557.73      -127442.24      5008.2402      305.46907    
    186000  -29955.54       4747.5209      92506.319     -127449.22      4987.3624      299.99903    
    186500  -29755.678      4675.5205      92821.508     -127449.69      4872.5057      295.44928    
    187000  -29872.453      4787.1591      92606.424     -127452.99      4974.1098      302.5038     
    187500  -29813.11       4728.6691      92707.146     -127453.49      4933.2383      298.80778    
    188000  -29782.006      4704.6001      92888.972     -127440.85      4769.8717      297.28684    
    188500  -29789.498      4750.6427      92789.341     -127448.19      4869.3488      300.19631    
    189000  -29772.017      4798.4477      92799.2       -127446.66      4875.4449      303.21713    
    189500  -29835.479      4904.0306      92897.606     -127440.98      4707.899       309.88899    
    190000  -29728.153      4740.5653      92913.457     -127445.47      4803.8625      299.55951    
    190500  -29926.417      4711.7039      92511.984     -127443.57      5005.1682      297.73573    
    191000  -29761.992      4793.0514      92811.596     -127448.63      4875.0402      302.87614    
    191500  -29709.599      4658.6291      92946.808     -127448.04      4791.6324      294.3819     
    192000  -29995.503      4677.9296      92456.33      -127442.76      4990.926       295.60151    
    192500  -29714.986      4728.4881      92929.363     -127447.97      4803.6245      298.79634    
    193000  -29855.46       4818.2928      92567.07      -127449.49      5026.9636      304.47116    
    193500  -29815.693      4718.2489      92711.372     -127449.96      4922.8929      298.14932    
    194000  -29925.201      4766.3944      92720.362     -127450.45      4804.8869      301.19167    
    194500  -29798.068      4687.0777      92676.592     -127449.73      4975.0669      296.17959    
    195000  -29706.686      4765.8661      92972.929     -127449.05      4769.4397      301.15828    
    195500  -29807.969      4770.9298      92936.888     -127453.47      4708.6164      301.47826    
    196000  -29762.411      4740.0364      92952.556     -127444.46      4729.4957      299.52608    
    196500  -29753.966      4832.3822      92912.145     -127444.13      4778.0179      305.36148    
    197000  -29904.437      4667.893       92760.538     -127448.11      4783.1379      294.96729    
    197500  -29632.423      4765.0533      92944.976     -127446.48      4869.0823      301.10692    
    198000  -29633.016      4759.8454      92986.469     -127438.04      4818.5551      300.77783    
    198500  -29818.036      4681.8411      92693.57      -127443.47      4931.8648      295.84868    
    199000  -29692.67       4706.5904      92907.021     -127443.59      4843.8952      297.41261    
    199500  -29766.027      4747.5164      92756.755     -127441.77      4918.99        299.99875    
    200000  -29598.28       4746.4296      93003.594     -127443.94      4842.0681      299.93008    
    200500  -29792.726      4725.4229      92774.167     -127447.15      4880.253       298.60265    
    201000  -29867.697      4837.5898      92551.032     -127444.7       5025.9737      305.69055    
    201500  -29659.188      4737.7006      92903.53      -127443.52      4880.803       299.37848    
    202000  -29819.711      4737.1326      92653.648     -127453.2       4979.8437      299.34259    
    202500  -29720.465      4686.6189      92826.298     -127446.29      4899.5263      296.15059    
    203000  -29865.137      4758.8746      92698.884     -127447.63      4883.6137      300.71649    
    203500  -29797.157      4786.8948      92808.268     -127451.14      4845.7164      302.4871     
    204000  -29831.228      4711.444       92714.494     -127448.95      4903.2247      297.71931    
    204500  -29654.748      4797.823       92979.015     -127451.74      4817.9746      303.17766    
    205000  -29861.878      4724.2398      92626.251     -127454.45      4966.3229      298.52789    
    205500  -29858.652      4797.6116      92672.82      -127451.92      4920.4498      303.1643     
    206000  -29788.243      4758.9008      92785.561     -127442.62      4868.8129      300.71814    
    206500  -29890.042      4688.5746      92473.842     -127449.53      5085.6444      296.27418    
    207000  -29847.383      4673.0952      92617.665     -127448.2       4983.153       295.29602    
    207500  -29850.37       4824.9642      92643.325     -127448.57      4954.8743      304.89273    
    208000  -29790.359      4751.3294      92790.485     -127440.08      4859.2387      300.2397     
    208500  -29712.487      4776.277       92827.127     -127445.11      4905.495       301.81615    
    209000  -29910.606      4825.4238      92542.521     -127443.69      4990.5631      304.92177    
    209500  -29717.909      4695.3207      92829.229     -127444.01      4896.8768      296.70047    
    210000  -29907.916      4705.5842      92610.92      -127444.67      4925.8377      297.34903    
    210500  -29908.284      4801.4483      92543.618     -127448.36      4996.4606      303.40674    
    211000  -29900.135      4768.207       92650.401     -127445.85      4895.3123      301.3062     
    211500  -29822.606      4696.9779      92570.639     -127445.41      5052.1681      296.80519    
    212000  -29716.591      4742.415       92770.906     -127446.19      4958.6906      299.67639    
    212500  -29930.219      4831.4392      92601.529     -127442.12      4910.3718      305.30189    
    213000  -29768.522      4796.1891      92718.425     -127437.57      4950.6266      303.07441    
    213500  -29727.182      4778.387       92908.61      -127443.33      4807.5365      301.94948    
    214000  -29720.955      4763.777       92791.94      -127450.11      4937.2122      301.02627    
    214500  -29727.25       4802.743       92831.895     -127449.93      4890.789       303.48856    
    215000  -29759.102      4836.9919      92813.311     -127448.4       4875.99        305.65277    
    215500  -29876.211      4725.4729      92603.798     -127452.65      4972.6377      298.60581    
    216000  -29806.852      4819.5844      92739.486     -127447.05      4900.7153      304.55278    
    216500  -29754.719      4780.339       92725.011     -127448.57      4968.838       302.07283    
    217000  -29852.34       4851.281       92635.609     -127447.34      4959.387       306.5557     
    217500  -29821.829      4754.6025      92728.257     -127442.71      4892.6228      300.44652    
    218000  -29776.113      4716.6385      92773.786     -127440.93      4891.0359      298.04756    
    218500  -29611.102      4764.0313      92994.486     -127444.25      4838.6604      301.04234    
    219000  -29913.527      4718.1761      92624.402     -127449.72      4911.7896      298.14472    
    219500  -29728.56       4715.8657      92804.049     -127438.54      4905.9343      297.99872    
    220000  -29707.188      4668.397       92737.699     -127445.47      5000.5874      294.99914    
Loop time of 5414.98 on 30 procs for 200000 steps with 9401 atoms

Performance: 6.382 ns/day, 3.760 hours/ns, 36.935 timesteps/s, 347.222 katom-step/s
94.2% CPU use with 30 MPI tasks x 1 OpenMP threads

MPI task timing breakdown:
Section |  min time  |  avg time  |  max time  |%varavg| %total
---------------------------------------------------------------
Pair    | 472.26     | 962.41     | 1312.5     | 742.7 | 17.77
Bond    | 0.13017    | 0.22668    | 0.35782    |  10.8 |  0.00
Kspace  | 1309.9     | 1660       | 2150.2     | 565.9 | 30.66
Neigh   | 395.09     | 396.64     | 399.73     |   6.6 |  7.32
Comm    | 142.03     | 159.36     | 173.43     |  58.8 |  2.94
Output  | 5.9969     | 7.8493     | 9.6865     |  39.5 |  0.14
Modify  | 2211.8     | 2220.2     | 2228.8     |   9.8 | 41.00
Other   |            | 8.293      |            |       |  0.15

Nlocal:        313.367 ave         364 max         276 min
Histogram: 6 4 7 1 0 0 0 6 2 4
Nghost:         7680.4 ave        9423 max        6011 min
Histogram: 12 0 0 0 0 0 3 9 0 6
Neighs:         212992 ave      261768 max      125707 min
Histogram: 4 2 0 0 0 1 4 8 8 3

Total # of neighbors = 6389763
Ave neighs/atom = 679.68971
Ave special neighs/atom = 1.6919477
Neighbor list builds = 19295
Dangerous builds = 13198
    #write_data structure.data
    undump alldump
    next l
    unfix conp2
    jump SELF loop_start
    variable l_tf equal ${l}/2
    variable l_tf equal 8/2
    # fix id group1 electrode/conp psi1 eta couple group2 psi2 write_inv
    # fix conp1 lower electrode/conp 0.0 5 couple upper 0.0 write_inv inv.out etypes 1*6 # Write call to not have to determine the matrix twice
    fix conp1 lower electrode/conp 0.0 2.925 couple upper 0.0# Write call to not have to determine the matrix twice
1440 atoms in group conp_group
    fix_modify conp1 tf 1 ${l_tf} ${d}
    fix_modify conp1 tf 1 4 ${d}
    fix_modify conp1 tf 1 4 6.81038626666667
    fix_modify conp1 tf 6 ${l_tf} ${d}
    fix_modify conp1 tf 6 4 ${d}
    fix_modify conp1 tf 6 4 6.81038626666667
    # fix conp1 lower electrode/conp 0.0 5 couple upper 0.0 read_inv inv.out # Write call to not have to determine the matrix twice

    # ======== equilibrate for ? ns ========
    reset_timestep 0
    thermo 50
    # dump equilxtc h2o xtc 50 equil.xtc
    run 500 # 1 ps, ~ correlation time of spce water
PPPM/electrode initialization ...
  using 12-bit tables for long-range coulomb (src/kspace.cpp:342)
  G vector (1/distance) = 0.2378332
  grid = 40 45 100
  stencil order = 5
  estimated absolute RMS force accuracy = 0.00036351861
  estimated relative force accuracy = 1.0947255e-06
  using double precision FFTW3
  3d grid and FFT values/proc = 45144 22200
Generated 15 of 15 mixed pair_coeff terms from arithmetic mixing rule
WARNING: Neighbor exclusions used with KSpace solver may give inconsistent Coulombic energies (src/neighbor.cpp:654)
Neighbor list info ...
  update: every = 1 steps, delay = 10 steps, check = yes
  max neighbors/atom: 2000, page size: 100000
  master list distance cutoff = 16
  ghost atom cutoff = 16
  binsize = 8, bins = 6 6 7
  2 neighbor lists, perpetual/occasional/extra = 2 0 0
  (1) pair lj/cut/coul/long, perpetual
      attributes: half, newton on
      pair build: half/bin/newton
      stencil: half/bin/3d
      bin: standard
  (2) fix electrode/conp, perpetual, copy from (1)
      attributes: half, newton on
      pair build: copy
      stencil: none
      bin: none
Per MPI rank memory allocation (min/avg/max) = 27.35 | 27.86 | 29.57 Mbytes
   Step         PotEng         KinEng         E_coul         E_long         E_vdwl      c_watertemp  
         0  -29707.252      4668.397       92735.983     -127443.82      5000.5874      294.99914    
        50  -29745.123      4757.6253      92800.125     -127440.2       4894.9505      300.63754    
       100  -29711.496      4772.9108      92931.023     -127434.15      4791.6269      301.60344    
       150  -29694.046      4785.1285      93040.06      -127438.64      4704.5366      302.37548    
       200  -29603.162      4720.1441      93078.389     -127441.86      4760.3059      298.26908    
       250  -29639.953      4788.5403      93000.329     -127441.95      4801.6719      302.59108    
       300  -29661.565      4824.1097      92891.199     -127451.77      4899.0069      304.83873    
       350  -29546.576      4705.945       93133.832     -127441.8       4761.3963      297.37183    
       400  -29671.974      4826.1332      93013.369     -127438.74      4753.3989      304.9666     
       450  -29608.568      4702.8368      93073.244     -127446.11      4764.2993      297.17542    
       500  -29658.178      4677.6499      93036.964     -127447.26      4752.119       295.58384    
Loop time of 13.6324 on 30 procs for 500 steps with 9401 atoms

Performance: 6.338 ns/day, 3.787 hours/ns, 36.677 timesteps/s, 344.804 katom-step/s
94.4% CPU use with 30 MPI tasks x 1 OpenMP threads

MPI task timing breakdown:
Section |  min time  |  avg time  |  max time  |%varavg| %total
---------------------------------------------------------------
Pair    | 1.1704     | 2.3246     | 3.8128     |  46.0 | 17.05
Bond    | 0.0002609  | 0.00053919 | 0.00088492 |   0.0 |  0.00
Kspace  | 2.9428     | 4.4327     | 5.5844     |  33.4 | 32.52
Neigh   | 1.0182     | 1.0241     | 1.0329     |   0.4 |  7.51
Comm    | 0.34795    | 0.38707    | 0.43936    |   3.8 |  2.84
Output  | 0.00097743 | 0.0010042  | 0.0013976  |   0.2 |  0.01
Modify  | 5.4012     | 5.4433     | 5.4668     |   0.7 | 39.93
Other   |            | 0.01903    |            |       |  0.14

Nlocal:        313.367 ave         372 max         270 min
Histogram: 4 6 6 1 1 2 1 5 1 3
Nghost:         7681.6 ave        9464 max        6031 min
Histogram: 12 0 0 0 0 0 7 5 0 6
Neighs:         213099 ave      268236 max      120462 min
Histogram: 2 4 0 0 0 1 7 8 6 2

Total # of neighbors = 6392972
Ave neighs/atom = 680.03106
Ave special neighs/atom = 1.6919477
Neighbor list builds = 49
Dangerous builds = 41

    write_dump solvent xyz water_ions.xyz
    write_data equilibrated_structure.data
System init for write_data ...
PPPM/electrode initialization ...
  using 12-bit tables for long-range coulomb (src/kspace.cpp:342)
  G vector (1/distance) = 0.23783319
  grid = 40 45 100
  stencil order = 5
  estimated absolute RMS force accuracy = 0.00036351839
  estimated relative force accuracy = 1.0947248e-06
  using double precision FFTW3
  3d grid and FFT values/proc = 45144 22200
Generated 15 of 15 mixed pair_coeff terms from arithmetic mixing rule
WARNING: Neighbor exclusions used with KSpace solver may give inconsistent Coulombic energies (src/neighbor.cpp:654)

    ## ======== production run ========


    reset_timestep 0
    # Dump to also show the changing charge of the walls
    dump alldump all custom 50 wallcharge_${l_tf}.lammpstrj id type x y z q
    dump alldump all custom 50 wallcharge_4.lammpstrj id type x y z q
    thermo 500 # frequency log file
    #
    variable doutx equal 50 # 0.1ps
    #
    #dump xtc all xtc ${doutx} traj.xtc
    run 20000
PPPM/electrode initialization ...
  using 12-bit tables for long-range coulomb (src/kspace.cpp:342)
  G vector (1/distance) = 0.23783319
  grid = 40 45 100
  stencil order = 5
  estimated absolute RMS force accuracy = 0.00036351839
  estimated relative force accuracy = 1.0947248e-06
  using double precision FFTW3
  3d grid and FFT values/proc = 45144 22200
Generated 15 of 15 mixed pair_coeff terms from arithmetic mixing rule
WARNING: Neighbor exclusions used with KSpace solver may give inconsistent Coulombic energies (src/neighbor.cpp:654)
Per MPI rank memory allocation (min/avg/max) = 27.35 | 27.86 | 29.57 Mbytes
   Step         PotEng         KinEng         E_coul         E_long         E_vdwl      c_watertemp  
         0  -29658.178      4677.6499      93036.964     -127447.26      4752.119       295.58384    
       500  -29747.136      4625.0863      92718.945     -127456.16      4990.0835      292.26231    
      1000  -29735.516      4699.0782      92849.701     -127443.73      4858.5145      296.93791    
      1500  -29831.565      4801.4477      92503.34      -127445.42      5110.5137      303.40671    
      2000  -29967.846      4707.6362      92502.106     -127444.82      4974.8695      297.4787     
      2500  -29810.322      4847.1519      92760.206     -127455.45      4884.9234      306.29479    
      3000  -29726.967      4695.2332      92829.189     -127446.08      4889.9248      296.69494    
      3500  -29781.859      4706.3497      92643.417     -127449.73      5024.4501      297.3974     
      4000  -29735.73       4706.1476      92820.625     -127454.02      4897.6618      297.38463    
      4500  -29847.987      4774.9309      92715.71      -127449.82      4886.1282      301.73109    
      5000  -29704.651      4769.4954      92858.567     -127439.24      4876.0229      301.38762    
      5500  -29737.264      4820.7427      92931.927     -127448.94      4779.7452      304.62597    
      6000  -29722.731      4874.6208      92970.136     -127442.19      4749.3191      308.03056    
      6500  -29877.213      4828.5391      92662.571     -127441.1       4901.3182      305.11863    
      7000  -29818.71       4773.7286      92630.217     -127444.88      4995.9551      301.65512    
      7500  -29773.957      4777.5567      92807.589     -127443.33      4861.7807      301.89702    
      8000  -29808.145      4767.4945      92807.777     -127451.26      4835.336       301.26118    
      8500  -29925.514      4611.2126      92536.59      -127445.03      4982.9295      291.38562    
      9000  -29741.194      4768.9076      92737.569     -127442.62      4963.8524      301.35048    
      9500  -29799.979      4808.9011      92806.327     -127451.89      4845.5876      303.87769    
     10000  -29793.416      4687.1003      92700.231     -127446.09      4952.4455      296.18102    
     10500  -29781.633      4798.5461      92819.063     -127444.93      4844.2336      303.22335    
     11000  -29864.176      4792.8633      92882.951     -127443.52      4696.3976      302.86425    
     11500  -29854.511      4734.8005      92657.58      -127445.5       4933.4096      299.19522    
     12000  -29797.778      4682.4171      92853.853     -127452.38      4800.7536      295.88508    
     12500  -29753.684      4741.7613      92697.138     -127442.77      4991.9486      299.63508    
     13000  -29659.122      4706.6197      92972.261     -127436.16      4804.7809      297.41446    
     13500  -29792.2        4708.2008      92823.363     -127446.84      4831.2808      297.51437    
     14000  -29765.668      4673.6372      92956.815     -127445.04      4722.5612      295.33028    
     14500  -29826.645      4689.6715      92757.474     -127444.45      4860.3299      296.34349    
     15000  -29737.222      4808.5016      92955.17      -127442.66      4750.2685      303.85245    
     15500  -29648.174      4767.6706      92853.883     -127451.8       4949.7484      301.27231    
     16000  -29875.489      4727.3479      92602.94      -127448.89      4970.4612      298.72429    
     16500  -29790.416      4755.4815      92662.975     -127446.82      4993.4307      300.50207    
     17000  -29860.026      4856.8639      92730.275     -127431.53      4841.2265      306.90849    
     17500  -29866.458      4711.8885      92642.999     -127442.5       4933.0447      297.7474     
     18000  -29889.538      4683.4688      92525.136     -127446.74      5032.0693      295.95154    
     18500  -29816.21       4721.5619      92794.552     -127446.48      4835.7149      298.35867    
     19000  -29867.442      4793.0843      92679.314     -127443.25      4896.4932      302.87822    
     19500  -30012.921      4762.8088      92501.097     -127450.48      4936.4571      300.96509    
     20000  -29895.55       4725.5943      92579.366     -127446.63      4971.7108      298.61348    
Loop time of 512.531 on 30 procs for 20000 steps with 9401 atoms

Performance: 6.743 ns/day, 3.559 hours/ns, 39.022 timesteps/s, 366.846 katom-step/s
94.2% CPU use with 30 MPI tasks x 1 OpenMP threads

MPI task timing breakdown:
Section |  min time  |  avg time  |  max time  |%varavg| %total
---------------------------------------------------------------
Pair    | 45.917     | 92.158     | 141.09     | 288.5 | 17.98
Bond    | 0.011315   | 0.019641   | 0.033944   |   4.1 |  0.00
Kspace  | 107.35     | 156.92     | 203.7      | 221.4 | 30.62
Neigh   | 38.336     | 38.692     | 39.004     |   2.9 |  7.55
Comm    | 13.22      | 15.375     | 17.722     |  30.3 |  3.00
Output  | 0.59872    | 0.79871    | 0.9948     |  13.3 |  0.16
Modify  | 205.91     | 207.78     | 209.09     |   5.4 | 40.54
Other   |            | 0.7949     |            |       |  0.16

Nlocal:        313.367 ave         373 max         271 min
Histogram: 2 7 6 2 2 1 3 4 1 2
Nghost:        7671.93 ave        9383 max        6013 min
Histogram: 12 0 0 0 0 0 1 11 0 6
Neighs:         213381 ave      278040 max      125720 min
Histogram: 5 1 0 0 0 3 7 13 0 1

Total # of neighbors = 6401431
Ave neighs/atom = 680.93086
Ave special neighs/atom = 1.6919477
Neighbor list builds = 1929
Dangerous builds = 1316
    unfix conp1
    fix conp2 lower electrode/conp 0.5 2.925 couple upper -0.5
1440 atoms in group conp_group
    fix_modify conp2 tf 1 ${l_tf} ${d}
    fix_modify conp2 tf 1 4 ${d}
    fix_modify conp2 tf 1 4 6.81038626666667
    fix_modify conp2 tf 6 ${l_tf} ${d}
    fix_modify conp2 tf 6 4 ${d}
    fix_modify conp2 tf 6 4 6.81038626666667
    run         200000 # 400 ps
PPPM/electrode initialization ...
  using 12-bit tables for long-range coulomb (src/kspace.cpp:342)
  G vector (1/distance) = 0.23783319
  grid = 40 45 100
  stencil order = 5
  estimated absolute RMS force accuracy = 0.00036351836
  estimated relative force accuracy = 1.0947247e-06
  using double precision FFTW3
  3d grid and FFT values/proc = 45144 22200
Generated 15 of 15 mixed pair_coeff terms from arithmetic mixing rule
WARNING: Neighbor exclusions used with KSpace solver may give inconsistent Coulombic energies (src/neighbor.cpp:654)
Neighbor list info ...
  update: every = 1 steps, delay = 10 steps, check = yes
  max neighbors/atom: 2000, page size: 100000
  master list distance cutoff = 16
  ghost atom cutoff = 16
  binsize = 8, bins = 6 6 7
  2 neighbor lists, perpetual/occasional/extra = 2 0 0
  (1) pair lj/cut/coul/long, perpetual
      attributes: half, newton on
      pair build: half/bin/newton
      stencil: half/bin/3d
      bin: standard
  (2) fix electrode/conp, perpetual, copy from (1)
      attributes: half, newton on
      pair build: copy
      stencil: none
      bin: none
Per MPI rank memory allocation (min/avg/max) = 28.61 | 29.13 | 30.84 Mbytes
   Step         PotEng         KinEng         E_coul         E_long         E_vdwl      c_watertemp  
     20000  -29893.573      4725.5943      92579.499     -127444.78      4971.7108      298.61348    
     20500  -29881.369      4784.26        92598.889     -127444.65      4964.3877      302.32061    
     21000  -29663.584      4720.3736      92893.123     -127445.61      4888.9063      298.28358    
     21500  -29880.317      4760.9862      92573.745     -127446.39      4992.3237      300.84992    
     22000  -29766.843      4733.047       92883.416     -127445.63      4795.3676      299.08442    
     22500  -29958.387      4760.6591      92602.871     -127447.94      4886.6771      300.82925    
     23000  -29874.954      4703.9598      92652.802     -127449.91      4922.1567      297.24638    
     23500  -29784.35       4798.98        92564.248     -127442         5093.4011      303.25077    
     24000  -29692.424      4722.9992      92904.314     -127439.99      4843.2512      298.44949    
     24500  -29798.427      4699.2309      92826.09      -127450.56      4826.0382      296.94756    
     25000  -29819.788      4647.021       92631.31      -127443.64      4992.5385      293.64838    
     25500  -29790.352      4787.4542      92847.889     -127450.93      4812.6899      302.52245    
     26000  -29711.662      4863.9746      92854.522     -127451.43      4885.2439      307.35782    
     26500  -29804.706      4744.7527      92667.781     -127452.91      4980.4245      299.82411    
     27000  -29845.46       4670.4987      92620.251     -127447.01      4981.3038      295.13195    
     27500  -29925.895      4697.1545      92654.254     -127449.09      4868.9383      296.81635    
     28000  -29790.922      4808.5856      92638.348     -127451.17      5021.9038      303.85776    
     28500  -29826.97       4820.5738      92737.277     -127444.39      4880.1379      304.6153     
     29000  -29646.844      4769.5256      92938.248     -127444.46      4859.3638      301.38952    
     29500  -29693.224      4752.7749      92867.857     -127447.19      4886.1131      300.33104    
     30000  -29708.718      4707.7297      92982.296     -127450.03      4759.0181      297.4846     
     30500  -29794.535      4750.2743      92875.844     -127450.57      4780.1867      300.17303    
     31000  -29765.533      4712.0048      92794.271     -127445.65      4885.841       297.75475    
     31500  -29716.067      4752.2795      92908.994     -127451.01      4825.9455      300.29974    
     32000  -29728.703      4647.017       92800.914     -127447.91      4918.2943      293.64813    
     32500  -29803.519      4765.5902      92692.495     -127454.14      4958.1295      301.14085    
     33000  -29801.061      4710.2089      92833.8       -127449.48      4814.6214      297.64126    
     33500  -29692.953      4763.7772      92761.956     -127445.34      4990.4359      301.02628    
     34000  -29733.611      4674.378       92762.525     -127447.71      4951.5728      295.37709    
     34500  -29765.395      4737.6681      92822.936     -127444.69      4856.3595      299.37643    
     35000  -29828.278      4833.054       92622.673     -127450.04      4999.0922      305.40393    
     35500  -29757.873      4674.9684      92824.926     -127446.92      4864.1198      295.41439    
     36000  -29738.869      4670.2132      92830.842     -127442.8       4873.092       295.11391    
     36500  -29772.387      4865.6807      92909.929     -127446.74      4764.4285      307.46563    
     37000  -29683.297      4674.872       93035.292     -127443.41      4724.8182      295.4083     
     37500  -29801.018      4826.1526      92753.221     -127448.49      4894.2501      304.96783    
     38000  -29648.031      4742.1309      93057.898     -127448.53      4742.6036      299.65844    
     38500  -29741.302      4695.7642      92787.494     -127440.74      4911.9424      296.7285     
     39000  -29824.405      4670.0611      92681.383     -127445.01      4939.2224      295.1043     
     39500  -29737.227      4816.0049      92838.953     -127441.01      4864.8321      304.32658    
     40000  -29883.048      4754.425       92689.106     -127438.43      4866.2779      300.43531    
     40500  -29812.968      4731.1966      92668.301     -127445.34      4964.0739      298.96749    
     41000  -29699.002      4657.5683      92980.352     -127441.28      4761.9233      294.31487    
     41500  -29825.322      4650.0517      92662.921     -127450.89      4962.6415      293.83989    
     42000  -29814.613      4629.5811      92838.718     -127447.23      4793.8978      292.54634    
     42500  -29731.165      4812.0635      92727.619     -127444.12      4985.3367      304.07753    
     43000  -29763.004      4768.1335      92803.823     -127447.71      4880.8803      301.30156    
     43500  -29902.284      4798.3976      92665.378     -127449.13      4881.4675      303.21397    
     44000  -29794.08       4772.6872      92565.871     -127444.43      5084.4788      301.58931    
     44500  -29695.364      4666.3155      92970.457     -127441.87      4776.0534      294.86761    
     45000  -29871.872      4801.5082      92682.974     -127451.65      4896.7996      303.41053    
     45500  -29740.403      4794.6389      92807.773     -127456.23      4908.0521      302.97645    
     46000  -29862.494      4749.3077      92610.119     -127449.55      4976.9334      300.11194    
     46500  -29735.571      4776.3251      92845.48      -127453.18      4872.1247      301.8192     
     47000  -29817.635      4733.6044      92786.872     -127443.09      4838.5795      299.11964    
     47500  -29879.121      4761.8566      92494.098     -127448.05      5074.8295      300.90492    
     48000  -29730.023      4784.3994      92824.895     -127446.35      4891.4363      302.32941    
     48500  -29778.913      4768.0529      92772.566     -127439.25      4887.7718      301.29647    
     49000  -29711.324      4737.9159      92772.519     -127447.09      4963.2434      299.39209    
     49500  -29713.849      4752.807       92904.622     -127449.26      4830.7899      300.33307    
     50000  -29875.241      4707.6683      92557.064     -127434.72      5002.418       297.48072    
     50500  -29796.857      4753.5664      92903.562     -127453.21      4752.7864      300.38106    
     51000  -29736.166      4812.2113      93015.871     -127449.55      4697.5091      304.08687    
     51500  -29640.098      4821.0388      93076.422     -127452.89      4736.3656      304.64468    
     52000  -29654.873      4743.0949      92900.636     -127444.82      4889.315       299.71936    
     52500  -29777.802      4711.2748      92918.575     -127445.55      4749.1744      297.70862    
     53000  -29641.456      4751.4065      93031.512     -127443.58      4770.6136      300.24457    
     53500  -29905.243      4666.7984      92820.675     -127446.4       4720.4834      294.89813    
     54000  -29980.11       4700.0339      92641.335     -127447.3       4825.8542      296.9983     
     54500  -29742.99       4666.3834      92860.274     -127445.11      4841.8438      294.8719     
     55000  -29823.498      4726.2019      92750.572     -127443.27      4869.1956      298.65187    
     55500  -29790.566      4785.2334      92786.766     -127447.09      4869.7555      302.38211    
     56000  -29749.235      4786.0981      92829.103     -127449.8       4871.4579      302.43675    
     56500  -29765.379      4666.3355      92789.349     -127452.79      4898.0592      294.86887    
     57000  -29601.599      4723.2387      93080.788     -127453.11      4770.723       298.46463    
     57500  -29639.296      4775.3769      93123.606     -127451.17      4688.2638      301.75928    
     58000  -29647.224      4679.6915      93073.709     -127439.58      4718.649       295.71285    
     58500  -29806.359      4792.4866      92890.131     -127449.99      4753.5023      302.84045    
     59000  -29797.128      4825.5069      92625.392     -127441.44      5018.9218      304.92702    
     59500  -29797.854      4765.0178      92811.41      -127447.68      4838.4201      301.10468    
     60000  -29792.169      4676.4412      92770.828     -127441.9       4878.8992      295.50746    
     60500  -29723.306      4772.3448      92856.97      -127443.72      4863.4416      301.56767    
     61000  -29757.056      4807.6003      92706.514     -127441.84      4978.2668      303.79549    
     61500  -29849.859      4763.15        92775.746     -127445.7       4820.0983      300.98665    
     62000  -29825.019      4723.1871      92625.94      -127438.97      4988.0104      298.46137    
     62500  -29666.079      4759.6193      92855.647     -127445.71      4923.9792      300.76354    
     63000  -29757.011      4640.3878      92679.965     -127436.16      4999.1811      293.22922    
     63500  -29707.168      4655.0926      92994.163     -127449.9       4748.5695      294.15843    
     64000  -29733.212      4735.7707      92927.274     -127442.7       4782.2088      299.25653    
     64500  -29713.096      4770.5661      92867.189     -127448.65      4868.3621      301.45527    
     65000  -29806.614      4832.7452      92703.819     -127449.78      4939.3458      305.38442    
     65500  -29931.59       4822.2998      92656.246     -127443.88      4856.0399      304.72437    
     66000  -29887.15       4717.5684      92568.917     -127444.26      4988.1961      298.10632    
     66500  -29841.969      4700.0802      92621.152     -127449.6       4986.4833      297.00123    
     67000  -29702.744      4805.338       92760.771     -127436.87      4973.3586      303.65254    
     67500  -29860.471      4702.0742      92697.775     -127444.96      4886.7161      297.12723    
     68000  -29799.626      4621.0946      92702.059     -127453.32      4951.6386      292.01007    
     68500  -29847.41       4825.3261      92730.295     -127441.23      4863.5222      304.9156     
     69000  -29784.204      4743.9437      92719.7       -127428.79      4924.885       299.77299    
     69500  -29808.186      4792.7636      92632.324     -127441.65      5001.141       302.85795    
     70000  -29715.617      4755.9533      92853.724     -127450.1       4880.7544      300.53188    
     70500  -29857.197      4713.2227      92676.477     -127441.11      4907.436       297.83171    
     71000  -29633.094      4777.5192      92836.711     -127448.5       4978.6954      301.89465    
     71500  -29710.78       4725.0687      92788.285     -127443.91      4944.843       298.58027    
     72000  -29760.976      4753.9523      92808.099     -127447.02      4877.9404      300.40544    
     72500  -29813.635      4836.5506      92794.518     -127450.36      4842.2063      305.62488    
     73000  -29807.22       4675.5041      92628.027     -127446.61      5011.3586      295.44825    
     73500  -29767.355      4814.6949      92844.841     -127445.88      4833.6868      304.24381    
     74000  -29863.133      4727.0813      92669.325     -127443.78      4911.3167      298.70744    
     74500  -29919.265      4691.2811      92591.024     -127445.87      4935.5831      296.4452     
     75000  -29735.716      4813.4426      92854.586     -127445.66      4855.3579      304.16467    
     75500  -29854.379      4643.7243      92753.027     -127440.64      4833.2338      293.44006    
     76000  -29896.457      4747.2141      92661.194     -127447         4889.3491      299.97965    
     76500  -29777.454      4702.9943      92886.593     -127445.66      4781.6155      297.18537    
     77000  -29954.914      4741.8961      92494.215     -127452.59      5003.4602      299.6436     
     77500  -29889.638      4721.2418      92649.587     -127451.29      4912.0641      298.33844    
     78000  -29707.852      4827.4499      92969.97      -127450.18      4772.3622      305.0498     
     78500  -29688.68       4666.1746      92915.339     -127454.05      4850.0329      294.85871    
     79000  -29845.392      4763.4073      92728.016     -127443.15      4869.7419      301.00291    
     79500  -29728.456      4723.45        92847.451     -127444.54      4868.6353      298.47798    
     80000  -29674.975      4764.3575      92713.449     -127442.19      5053.7644      301.06295    
     80500  -29883.973      4817.5208      92854.145     -127449.68      4711.5631      304.42237    
     81000  -29894.479      4740.8392      92617.068     -127451.58      4940.0311      299.57681    
     81500  -29662.723      4747.8173      92921.531     -127450.49      4866.2318      300.01777    
     82000  -29841.328      4677.5044      92739.23      -127442.74      4862.1801      295.57465    
     82500  -29718.362      4766.0433      92841.619     -127445.23      4885.2534      301.16948    
     83000  -29783.789      4739.6212      92640.577     -127442.85      5018.4885      299.49985    
     83500  -29823.174      4804.456       92516.408     -127438.84      5099.2621      303.5968     
     84000  -29842.849      4803.1351      92631.051     -127452         4978.0965      303.51333    
     84500  -29856.073      4686.4684      92655.577     -127453.47      4941.8186      296.14109    
     85000  -29818.883      4685.1323      92887.346     -127451.71      4745.4796      296.05666    
     85500  -29809.232      4714.9374      92731.322     -127448.31      4907.7508      297.94006    
     86000  -29802.135      4815.9138      92687.592     -127445.21      4955.4839      304.32083    
     86500  -29859.604      4675.0708      92744.776     -127450.42      4846.0376      295.42087    
     87000  -29677.898      4828.8316      93000.644     -127445.66      4767.1179      305.13712    
     87500  -29747          4669.241       92795.509     -127444.39      4901.8827      295.05247    
     88000  -29792.897      4700.5896      92863.599     -127438.25      4781.7501      297.03342    
     88500  -29757.283      4744.707       92755.343     -127457.69      4945.069       299.82122    
     89000  -29755.246      4688.5753      92790.174     -127444.24      4898.8205      296.27422    
     89500  -29790.961      4688.0429      92788.674     -127444.27      4864.6304      296.24058    
     90000  -29835.286      4847.1617      92803.065     -127447.87      4809.5211      306.29541    
     90500  -29811.641      4796.832       92724.079     -127446.81      4911.0889      303.11503    
     91000  -29764.123      4681.4698      92746.75      -127445.94      4935.0653      295.82522    
     91500  -29857.954      4686.808       92689.211     -127448.68      4901.519       296.16254    
     92000  -29741.814      4745.7292      92822.993     -127442.12      4877.3169      299.88582    
     92500  -29805.592      4756.5446      92781.781     -127445.25      4857.8817      300.56925    
     93000  -29921.927      4837.4857      92566.219     -127451.48      4963.3336      305.68397    
     93500  -29879.657      4666.247       92597.72      -127446.28      4968.904       294.86328    
     94000  -29837.153      4741.7013      92621.575     -127453.32      4994.5901      299.63129    
     94500  -29830.507      4779.8918      92564.357     -127439.82      5044.9593      302.04457    
     95000  -29798.416      4796.8061      92599.748     -127443.54      5045.3738      303.1134     
     95500  -29805.332      4837.3498      92743.729     -127446.65      4897.5862      305.67539    
     96000  -29754.262      4733.743       92888.267     -127446.95      4804.423       299.1284     
     96500  -29678.931      4839.0696      93041.14      -127448.71      4728.6413      305.78406    
     97000  -29747.011      4692.4412      92892.292     -127446.17      4806.8685      296.51851    
     97500  -29670.49       4795.782       92983.393     -127448.01      4794.1228      303.04869    
     98000  -29682.584      4714.7409      92988.448     -127444.32      4773.2845      297.92765    
     98500  -29750.627      4842.9523      92872.141     -127444.34      4821.5755      306.02941    
     99000  -29831.259      4696.3547      92673.141     -127446.23      4941.827       296.76581    
     99500  -29788.644      4741.0251      92702.774     -127447.08      4955.6655      299.58856    
    100000  -29811.489      4744.5606      92740.055     -127446.39      4894.8504      299.81197    
    100500  -29868.055      4746.8169      92698.613     -127447.83      4881.1653      299.95455    
    101000  -29775.265      4752.8654      92702.959     -127441.58      4963.3555      300.33676    
    101500  -29649.915      4754.7806      92883.946     -127451.21      4917.3477      300.45778    
    102000  -29819.453      4722.3953      92751.771     -127450.02      4878.7932      298.41133    
    102500  -29834.466      4680.8433      92970.08      -127449.28      4644.7288      295.78564    
    103000  -29718.937      4722.8208      92954.324     -127451.06      4777.8006      298.43822    
    103500  -29669.379      4750.1652      92977.896     -127451.09      4803.8178      300.16613    
    104000  -29884.892      4738.6631      92591.145     -127443.29      4967.2577      299.43931    
    104500  -29744.127      4713.7406      92718.216     -127446.4       4984.0579      297.86444    
    105000  -29848.417      4847.2287      92742.39      -127449.58      4858.7716      306.29964    
    105500  -29751.621      4742.4518      92859.84      -127444.77      4833.3056      299.67872    
    106000  -29840.342      4823.6784      92735.97      -127436.75      4860.4418      304.81148    
    106500  -29652.932      4708.5797      93065.391     -127445.26      4726.9384      297.53832    
    107000  -29782.921      4716.0854      92745.341     -127448.57      4920.3085      298.01261    
    107500  -29811.896      4817.5279      92770.615     -127447.27      4864.7628      304.42283    
    108000  -30022.251      4713.1869      92525.002     -127444.57      4897.318       297.82944    
    108500  -29797.549      4820.1165      92665.793     -127437.16      4973.8189      304.5864     
    109000  -29825.604      4745.35        92771.995     -127440.43      4842.8317      299.86186    
    109500  -29667.527      4720.0746      92955.56      -127449.16      4826.0687      298.26468    
    110000  -29779.554      4785.5575      92844.349     -127444.11      4820.2079      302.40259    
    110500  -29708.724      4730.5527      92832.106     -127444.63      4903.801       298.9268     
    111000  -29838.849      4726.3273      92701.948     -127443.38      4902.5871      298.6598     
    111500  -29699.94       4798.1084      92824.112     -127446.05      4921.996       303.19569    
    112000  -29785.189      4700.4166      92758.016     -127444.47      4901.269       297.02249    
    112500  -29816.369      4784.4178      92742.352     -127449.82      4891.0949      302.33058    
    113000  -29845.87       4706.8617      92808.176     -127446.5       4792.4581      297.42975    
    113500  -29859.635      4677.727       92691.469     -127441.04      4889.9346      295.58871    
    114000  -29789.769      4744.0059      92856.312     -127442.16      4796.0795      299.77692    
    114500  -29907.922      4710.6144      92571.962     -127445.67      4965.791       297.66689    
    115000  -29808.345      4739.0904      92759.452     -127440.17      4872.3705      299.46631    
    115500  -29790.944      4769.7077      92760.136     -127444.41      4893.3248      301.40103    
    116000  -29819.314      4724.5505      92788.576     -127447.62      4839.7292      298.54752    
    116500  -29805.083      4684.189       92635.949     -127451.11      5010.0789      295.99705    
    117000  -29866.766      4618.4052      92651.366     -127443.83      4925.702       291.84013    
    117500  -29798.74       4760.556       92822.021     -127442.27      4821.5104      300.82273    
    118000  -29754.169      4746.1869      92777.059     -127448.05      4916.8173      299.91474    
    118500  -30056.116      4772.1423      92339.633     -127451.41      5055.6615      301.55488    
    119000  -29766.912      4735.5182      92677.072     -127438.59      4994.6074      299.24058    
    119500  -29780.198      4785.8063      92813.366     -127441.85      4848.2909      302.41832    
    120000  -29785.495      4794.1858      92842.078     -127445.02      4817.4504      302.94782    
    120500  -29813.703      4671.0494      92617.458     -127452.84      5021.6796      295.16675    
    121000  -29810.748      4737.9862      92679.67      -127447.63      4957.2094      299.39653    
    121500  -29695.276      4691.5487      92756.845     -127452.91      5000.7927      296.46211    
    122000  -29753.922      4680.4833      92738.275     -127445.87      4953.6761      295.76288    
    122500  -29867.585      4714.6387      92730.34      -127443.77      4845.8468      297.92119    
    123000  -29937.807      4728.4728      92604.981     -127455.38      4912.5878      298.79537    
    123500  -29714.893      4837.769       92867.792     -127441.46      4858.7796      305.70188    
    124000  -29773.676      4728.2577      92774.685     -127445.8       4897.4431      298.78178    
    124500  -29837.6        4638.4224      92707.682     -127447.43      4902.1498      293.10503    
    125000  -29751.8        4755.3563      92687.743     -127454.84      5015.2953      300.49416    
    125500  -29858.945      4824.6114      92671.86      -127447.9       4917.0999      304.87044    
    126000  -29843.964      4788.8378      92628.304     -127451.08      4978.8162      302.60988    
    126500  -29857.824      4790.5427      92621.282     -127453.3       4974.1905      302.71761    
    127000  -29755.071      4694.6009      92732.765     -127447.38      4959.5451      296.65499    
    127500  -29842.63       4739.8947      92748.846     -127444.04      4852.567       299.51713    
    128000  -29799.793      4758.8194      92828.69      -127435.92      4807.4417      300.713      
    128500  -29708.67       4871.8462      93086.956     -127449.18      4653.5574      307.85523    
    129000  -29793.07       4785.0189      92715.734     -127452.67      4943.8642      302.36856    
    129500  -29790.429      4854.3934      92756.343     -127451.35      4904.5818      306.75238    
    130000  -29799.981      4725.1965      92778.631     -127447         4868.3901      298.58834    
    130500  -29799.236      4770.0083      92702.74      -127439.13      4937.1511      301.42003    
    131000  -29747.351      4774.3877      92791.971     -127449.39      4910.066       301.69676    
    131500  -29719.104      4792.8386      92852.787     -127451.72      4879.826       302.86269    
    132000  -29897.617      4758.9032      92633.742     -127441.74      4910.3775      300.71829    
    132500  -29829.202      4644.2341      92613.175     -127445.54      5003.1647      293.47227    
    133000  -29639.135      4775.2909      92944.039     -127446.26      4863.0877      301.75384    
    133500  -29745.154      4655.7495      92911.897     -127444.54      4787.49        294.19994    
    134000  -29819.979      4756.4564      92878.606     -127450.52      4751.9348      300.56368    
    134500  -29803.932      4821.6748      92639.195     -127447.64      5004.5089      304.68487    
    135000  -29871.424      4778.0803      92732.88      -127448.19      4843.8903      301.9301     
    135500  -29828.183      4654.8095      92715.198     -127452.39      4909.0066      294.14054    
    136000  -29823.935      4706.9922      92815.243     -127445.84      4806.6613      297.438      
    136500  -29675.88       4741.6975      93047.762     -127445.78      4722.137       299.63105    
    137000  -29836.303      4790.1212      92616.837     -127446.21      4993.0702      302.69098    
    137500  -29760.546      4805.1068      92861.81      -127445.29      4822.9361      303.63792    
    138000  -29773.882      4719.7751      92722.187     -127452.4       4956.3339      298.24576    
    138500  -29897.737      4807.599       92493.547     -127449.54      5058.2606      303.79541    
    139000  -29767.048      4793.6651      92959.683     -127446.84      4720.1117      302.91492    
    139500  -29735.004      4676.3349      92895.105     -127449.51      4819.3997      295.50075    
    140000  -29627.526      4841.9161      93155.902     -127449.19      4665.7575      305.96393    
    140500  -29729.883      4687.3625      92838.164     -127447.52      4879.4701      296.19759    
    141000  -29815.592      4799.0546      92879.372     -127445.07      4750.1092      303.25548    
    141500  -29749.592      4758.52        92847.272     -127448.91      4852.0426      300.69407    
    142000  -29943.944      4755.7176      92435.825     -127437.26      5057.4898      300.51699    
    142500  -29822.103      4702.5716      92728.352     -127451.4       4900.9486      297.15866    
    143000  -29865.007      4707.2494      92792.026     -127443.48      4786.4446      297.45425    
    143500  -29711.434      4719.3347      92780.042     -127451.77      4960.2983      298.21793    
    144000  -29752.175      4694.4736      92801.67      -127447.59      4893.7418      296.64694    
    144500  -30000.619      4706.672       92472.946     -127442.04      4968.4744      297.41777    
    145000  -29686.79       4686.1266      92843.377     -127445.29      4915.1258      296.11949    
    145500  -29880.354      4743.1156      92649.788     -127451.79      4921.6528      299.72066    
    146000  -29753.624      4663.2969      92872.794     -127444.87      4818.4538      294.67687    
    146500  -29680.627      4793.7988      93003.496     -127447.87      4763.7497      302.92337    
    147000  -29658.149      4830.6529      92814.744     -127445.52      4972.6269      305.2522     
    147500  -29797.781      4741.6388      92900.797     -127450.64      4752.0603      299.62734    
    148000  -29704.397      4820.2251      92724.362     -127443.43      5014.6673      304.59326    
    148500  -29679.717      4710.6477      92998.25      -127444.31      4766.3464      297.669      
    149000  -29711.887      4722.218       92867.836     -127446.49      4866.7647      298.40013    
    149500  -29771.086      4637.4461      92823.559     -127440.17      4845.5289      293.04334    
    150000  -29609.317      4742.9283      93010.476     -127446.68      4826.8883      299.70883    
    150500  -29742.898      4771.9041      92788.373     -127449.6       4918.3333      301.53982    
    151000  -29739.459      4752.1527      92739.171     -127452.61      4973.9772      300.29172    
    151500  -29787.123      4832.3574      92814.345     -127451.78      4850.3125      305.35991    
    152000  -29750.766      4820.8922      92710.6       -127441.88      4980.5115      304.63541    
    152500  -29850.446      4662.8033      92656.01      -127443.95      4937.4894      294.64568    
    153000  -29827.752      4775.4909      92861.794     -127449.96      4760.4117      301.76648    
    153500  -29795.163      4765.9068      92814.772     -127450.26      4840.3273      301.16085    
    154000  -29664.951      4817.6516      93030.316     -127445.66      4750.396       304.43064    
    154500  -29727.249      4742.7157      92861.501     -127441.53      4852.7837      299.69539    
    155000  -29717.055      4761.1004      92989.085     -127444.46      4738.3245      300.85713    
    155500  -29699.129      4777.1101      92864.1       -127444.06      4880.83        301.8688     
    156000  -29812.576      4717.9515      92914.762     -127446.94      4719.6012      298.13052    
    156500  -29816.824      4804.9266      92748.533     -127439.03      4873.6751      303.62654    
    157000  -29881.932      4798.5851      92757.395     -127452.63      4813.3002      303.22581    
    157500  -29908.824      4694.1196      92669.902     -127443.36      4864.6332      296.62457    
    158000  -29911.812      4680.2196      92625.195     -127443.06      4906.0569      295.74622    
    158500  -29865.815      4750.9634      92609.425     -127456.5       4981.264       300.21657    
    159000  -29757.855      4769.1975      92837.846     -127439.97      4844.2665      301.36879    
    159500  -29833.219      4695.8828      92768.948     -127445.79      4843.6191      296.73599    
    160000  -29790.032      4713.7711      92784.132     -127446.07      4871.9043      297.86636    
    160500  -29776.843      4697.5726      92667.902     -127448.9       5004.1563      296.84277    
    161000  -29693.548      4693.7741      92933.526     -127447.7       4820.6223      296.60274    
    161500  -29879.562      4685.3431      92535.145     -127451.53      5036.8249      296.06998    
    162000  -29945.52       4819.1786      92591.467     -127446.31      4909.3187      304.52713    
    162500  -29677.09       4791.9243      92851.878     -127449         4920.0312      302.80492    
    163000  -29759.121      4764.7844      92723.515     -127447.53      4964.8987      301.08993    
    163500  -29776.747      4705.8949      92858.625     -127438.78      4803.4055      297.36866    
    164000  -29782.29       4665.7335      92808.533     -127442.93      4852.1025      294.83084    
    164500  -29739.464      4768.2609      92965.807     -127448.8       4743.532       301.30961    
    165000  -29750.729      4744.1596      92920.011     -127450.89      4780.1531      299.78663    
    165500  -29822.118      4695.1585      92660.828     -127444.04      4961.0958      296.69022    
    166000  -29936.246      4708.3387      92681.732     -127450.02      4832.0453      297.52308    
    166500  -29752.408      4792.4836      92728.878     -127451.81      4970.5242      302.84026    
    167000  -29784.412      4709.803       92702.084     -127445.72      4959.229       297.61561    
    167500  -29845.408      4828.3741      92759.092     -127442.92      4838.4196      305.1082     
    168000  -29745.265      4822.3019      92780.563     -127451.21      4925.3795      304.7245     
    168500  -29784.891      4682.7796      92815.452     -127448.33      4847.9831      295.90799    
    169000  -29788.623      4741.0909      92853.173     -127449.9       4808.107       299.59272    
    169500  -29688.554      4772.7288      93074.711     -127445.91      4682.6459      301.59194    
    170000  -29808.911      4633.7823      92736.647     -127441.74      4896.1817      292.81182    
    170500  -29878.122      4740.0762      92642.033     -127451.63      4931.4735      299.5286     
    171000  -29933.597      4848.2378      92433.802     -127453.56      5086.1656      306.3634     
    171500  -29852.761      4778.1982      92609.547     -127454.71      4992.3977      301.93756    
    172000  -29832.124      4697.174       92668.06      -127452.24      4952.0564      296.81758    
    172500  -29723.186      4739.9293      92984.747     -127454.19      4746.2584      299.51932    
    173000  -29881.512      4772.7249      92641.146     -127451.47      4928.8157      301.59169    
    173500  -29769.332      4723.3544      92805.811     -127452.21      4877.0624      298.47194    
    174000  -29844.368      4763.9961      92797.035     -127451.76      4810.3534      301.04011    
    174500  -29862.727      4878.4779      92624.009     -127445.25      4958.5171      308.2743     
    175000  -29770.139      4732.2742      92825.844     -127442.23      4846.2467      299.03558    
    175500  -29869.807      4694.715       92615.222     -127447.81      4962.7841      296.6622     
    176000  -29732.068      4779.2802      92826.173     -127445.7       4887.4555      302.00593    
    176500  -29670.093      4765.7788      92981.88      -127441.43      4789.4546      301.15276    
    177000  -29854.928      4762.77        92712.916     -127441.36      4873.513       300.96264    
    177500  -29632.204      4717.4395      92981.399     -127451.85      4838.2462      298.09817    
    178000  -29662.042      4755.0557      92971.816     -127433.14      4799.2863      300.47516    
    178500  -29869.182      4753.2813      92656.779     -127448.58      4922.617       300.36304    
    179000  -29751.504      4741.2111      92866.168     -127450.51      4832.8403      299.60032    
    179500  -29665.965      4799.3913      92979.168     -127445.57      4800.4352      303.27676    
    180000  -29510.284      4785.0692      93041.442     -127444.72      4892.9927      302.37174    
    180500  -29789.097      4766.9858      92730.356     -127450.61      4931.1566      301.22904    
    181000  -29592.301      4837.43        93014.19      -127440.23      4833.7432      305.68045    
    181500  -29719.075      4701.6267      92728.487     -127443.79      4996.2299      297.09895    
    182000  -29784.907      4761.7352      92806.121     -127441.3       4850.2711      300.89725    
    182500  -29857.533      4699.4427      92843.887     -127443.96      4742.5353      296.96094    
    183000  -29742.092      4719.0756      92803.675     -127453.08      4907.3129      298.20156    
    183500  -29718.472      4741.6836      92908.104     -127446.72      4820.1491      299.63018    
    184000  -29807.129      4781.5236      92674.724     -127447.4       4965.5455      302.14769    
    184500  -29811.6        4767.7823      92827.775     -127452.25      4812.8795      301.27937    
    185000  -29870.36       4769.7656      92725.634     -127449.78      4853.7888      301.40469    
    185500  -29717.868      4700.2778      92795.993     -127442.7       4928.8425      297.01371    
    186000  -29709.502      4775.7066      92730.214     -127445.95      5006.2365      301.78011    
    186500  -29991.067      4754.3846      92503.931     -127444.45      4949.4477      300.43276    
    187000  -29924.142      4749.7667      92638.468     -127446.46      4883.8513      300.14095    
    187500  -29767.857      4784.6218      92811.145     -127449.83      4870.8303      302.34347    
    188000  -29805.88       4720.0908      92735.242     -127450.06      4908.9391      298.26571    
    188500  -29723.716      4674.3259      92866.304     -127448.92      4858.8958      295.3738     
    189000  -29825.94       4780.8588      92711.797     -127446.04      4908.3077      302.10568    
    189500  -29913.818      4841.5462      92482.918     -127444.25      5047.5155      305.94056    
    190000  -29891.418      4719.2834      92673.006     -127445.25      4880.8265      298.21469    
    190500  -29880.698      4856.7128      92741.875     -127454.72      4832.1471      306.89895    
    191000  -29712.339      4839.0635      92863.085     -127447.85      4872.4253      305.78368    
    191500  -29914.537      4725.9372      92613.46      -127452.67      4924.6727      298.63515    
    192000  -30014.214      4690.3682      92451.209     -127450.74      4985.3219      296.38752    
    192500  -29778.884      4721.7275      92801.187     -127455.24      4875.1714      298.36913    
    193000  -29776.467      4697.7659      92670.22      -127436.02      4989.3373      296.85498    
    193500  -29990.227      4718.9535      92443.902     -127444.95      5010.8228      298.19384    
    194000  -29891.377      4676.6747      92598.198     -127448.82      4959.2477      295.52222    
    194500  -29888.396      4797.51        92581.817     -127448.3       4978.0851      303.15788    
    195000  -29810.98       4675.1443      92735.023     -127445.78      4899.7792      295.42551    
    195500  -29829.514      4773.2467      92774.003     -127441.24      4837.7232      301.62467    
    196000  -29725.478      4674.3079      92577.929     -127442.48      5139.0733      295.37266    
    196500  -29740.704      4772.0178      92857.65      -127450.91      4852.5553      301.54701    
    197000  -29961.765      4876.2616      92479.366     -127445.19      5004.0607      308.13425    
    197500  -29806.114      4770.5981      92722.566     -127446.54      4917.8637      301.4573     
    198000  -29767.664      4671.0089      92726.999     -127443.34      4948.674       295.16419    
    198500  -29857.962      4728.1633      92633.902     -127444.12      4952.2533      298.77582    
    199000  -29800.389      4715.7442      92808.42      -127446.31      4837.506       297.99105    
    199500  -29947.147      4717.8525      92728.912     -127445.93      4769.8739      298.12427    
    200000  -29605.654      4735.5377      92966.588     -127442.85      4870.6101      299.24181    
    200500  -29867.027      4715.7032      92803.496     -127443.09      4772.5673      297.98845    
    201000  -29793.064      4642.6068      92726.312     -127455.52      4936.1414      293.36944    
    201500  -29746.781      4661.3588      92872.069     -127444.21      4825.3599      294.5544     
    202000  -29816.51       4806.6313      92822.895     -127442.35      4802.9415      303.73426    
    202500  -29768.536      4724.0197      92749.855     -127445.79      4927.3956      298.51398    
    203000  -29833.719      4734.5622      92736.746     -127450.66      4880.1907      299.18017    
    203500  -29791.987      4687.0017      92696.844     -127445.97      4957.138       296.17479    
    204000  -29799.446      4735.8095      92801.869     -127449.33      4848.0097      299.25899    
    204500  -29653.721      4716.3785      93081.401     -127449.79      4714.6643      298.03113    
    205000  -29744.2        4763.0707      92743.777     -127447.02      4959.0463      300.98164    
    205500  -29985.253      4692.8735      92526.039     -127448.42      4937.1291      296.54583    
    206000  -29734.306      4811.0518      92869.623     -127446.68      4842.7465      304.0136     
    206500  -29751.117      4790.1117      92864.142     -127449.71      4834.4549      302.69038    
    207000  -29906.148      4728.9646      92515.647     -127449.87      5028.0727      298.82645    
    207500  -29776.142      4637.5728      92780.721     -127447.14      4890.2773      293.05134    
    208000  -29834.63       4768.5595      92763.807     -127450.14      4851.7047      301.32848    
    208500  -29814.832      4766.0757      92528.843     -127448.48      5104.8048      301.17152    
    209000  -29770.497      4837.0664      92902.549     -127442.4       4769.3501      305.65747    
    209500  -29722.604      4753.4531      92898.29      -127442.38      4821.4838      300.37389    
    210000  -29847.476      4810.207       92719.844     -127446.18      4878.8621      303.96021    
    210500  -29773.031      4743.7222      92784.978     -127449.65      4891.6382      299.75899    
    211000  -29887.305      4794.12        92575.786     -127439.63      4976.5426      302.94366    
    211500  -29781.481      4761.0172      92602.807     -127442.34      5058.052       300.85188    
    212000  -29882.841      4702.3936      92786.812     -127451.23      4781.5764      297.14741    
    212500  -29797.109      4792.2804      92767.273     -127452.34      4887.9601      302.82742    
    213000  -29692.028      4771.4283      92936.973     -127445.51      4816.507       301.50976    
    213500  -29811.803      4738.9504      92750.877     -127443.33      4880.6462      299.45746    
    214000  -29749.06       4747.5633      92776.92      -127442.75      4916.7747      300.00171    
    214500  -29704.549      4761.9         92947.755     -127444.16      4791.8587      300.90766    
    215000  -29724.622      4799.11        92904.568     -127437.99      4808.7971      303.25899    
    215500  -29986.124      4681.7238      92526.488     -127443.04      4930.4236      295.84127    
    216000  -29722.826      4744.2241      92957.799     -127451.98      4771.3593      299.79071    
    216500  -29838.858      4797.9381      92712.014     -127433.17      4882.2987      303.18493    
    217000  -29796.628      4721.834       92977.186     -127449.98      4676.1668      298.37586    
    217500  -29807.868      4761.7038      92711.86      -127442.13      4922.4017      300.89526    
    218000  -29860.253      4755.6145      92729.733     -127449.47      4859.4829      300.51048    
    218500  -29861.802      4708.2808      92714.216     -127444.5       4868.482       297.51943    
    219000  -29823.879      4676.1266      92590.847     -127452.22      5037.4939      295.48758    
    219500  -29704.553      4842.7284      92960.622     -127451.42      4786.2417      306.01526    
    220000  -29730.823      4747.015       92669.785     -127438.72      5038.1086      299.96706    
Loop time of 5237.59 on 30 procs for 200000 steps with 9401 atoms

Performance: 6.598 ns/day, 3.637 hours/ns, 38.186 timesteps/s, 358.982 katom-step/s
94.2% CPU use with 30 MPI tasks x 1 OpenMP threads

MPI task timing breakdown:
Section |  min time  |  avg time  |  max time  |%varavg| %total
---------------------------------------------------------------
Pair    | 467.53     | 916.92     | 1339.6     | 766.2 | 17.51
Bond    | 0.10851    | 0.20536    | 0.33236    |  10.6 |  0.00
Kspace  | 1219.7     | 1645.9     | 2095.1     | 573.0 | 31.42
Neigh   | 382.95     | 385.82     | 389.45     |   7.7 |  7.37
Comm    | 130.56     | 155.52     | 178.87     |  87.2 |  2.97
Output  | 6.5967     | 8.6073     | 10.699     |  42.1 |  0.16
Modify  | 2100.2     | 2116.8     | 2130.5     |  13.9 | 40.42
Other   |            | 7.794      |            |       |  0.15

Nlocal:        313.367 ave         360 max         260 min
Histogram: 1 2 6 3 5 1 0 4 2 6
Nghost:        7699.37 ave        9432 max        6010 min
Histogram: 12 0 0 0 0 0 1 11 0 6
Neighs:         213445 ave      267833 max      120056 min
Histogram: 4 2 0 0 0 1 7 7 8 1

Total # of neighbors = 6403341
Ave neighs/atom = 681.13403
Ave special neighs/atom = 1.6919477
Neighbor list builds = 19291
Dangerous builds = 13139
    #write_data structure.data
    undump alldump
    next l
    unfix conp2
    jump SELF loop_start
    variable l_tf equal ${l}/2
    variable l_tf equal 9/2
    # fix id group1 electrode/conp psi1 eta couple group2 psi2 write_inv
    # fix conp1 lower electrode/conp 0.0 5 couple upper 0.0 write_inv inv.out etypes 1*6 # Write call to not have to determine the matrix twice
    fix conp1 lower electrode/conp 0.0 2.925 couple upper 0.0# Write call to not have to determine the matrix twice
1440 atoms in group conp_group
    fix_modify conp1 tf 1 ${l_tf} ${d}
    fix_modify conp1 tf 1 4.5 ${d}
    fix_modify conp1 tf 1 4.5 6.81038626666667
    fix_modify conp1 tf 6 ${l_tf} ${d}
    fix_modify conp1 tf 6 4.5 ${d}
    fix_modify conp1 tf 6 4.5 6.81038626666667
    # fix conp1 lower electrode/conp 0.0 5 couple upper 0.0 read_inv inv.out # Write call to not have to determine the matrix twice

    # ======== equilibrate for ? ns ========
    reset_timestep 0
    thermo 50
    # dump equilxtc h2o xtc 50 equil.xtc
    run 500 # 1 ps, ~ correlation time of spce water
PPPM/electrode initialization ...
  using 12-bit tables for long-range coulomb (src/kspace.cpp:342)
  G vector (1/distance) = 0.23783319
  grid = 40 45 100
  stencil order = 5
  estimated absolute RMS force accuracy = 0.00036351858
  estimated relative force accuracy = 1.0947254e-06
  using double precision FFTW3
  3d grid and FFT values/proc = 45144 22200
Generated 15 of 15 mixed pair_coeff terms from arithmetic mixing rule
WARNING: Neighbor exclusions used with KSpace solver may give inconsistent Coulombic energies (src/neighbor.cpp:654)
Neighbor list info ...
  update: every = 1 steps, delay = 10 steps, check = yes
  max neighbors/atom: 2000, page size: 100000
  master list distance cutoff = 16
  ghost atom cutoff = 16
  binsize = 8, bins = 6 6 7
  2 neighbor lists, perpetual/occasional/extra = 2 0 0
  (1) pair lj/cut/coul/long, perpetual
      attributes: half, newton on
      pair build: half/bin/newton
      stencil: half/bin/3d
      bin: standard
  (2) fix electrode/conp, perpetual, copy from (1)
      attributes: half, newton on
      pair build: copy
      stencil: none
      bin: none
Per MPI rank memory allocation (min/avg/max) = 27.35 | 27.86 | 29.57 Mbytes
   Step         PotEng         KinEng         E_coul         E_long         E_vdwl      c_watertemp  
         0  -29730.827      4747.015       92667.331     -127436.27      5038.1086      299.96706    
        50  -29826.208      4811.1098      92737.76      -127438.71      4874.7423      304.01726    
       100  -29847.617      4756.1834      92771.605     -127445.35      4826.1286      300.54643    
       150  -29840.043      4698.1171      92764.301     -127440.01      4835.6681      296.87718    
       200  -29880.726      4730.0206      92640.776     -127443.27      4921.7688      298.89318    
       250  -29870.364      4728.3457      92665.748     -127447.83      4911.7189      298.78734    
       300  -29841.714      4725.8559      92773.48      -127448.98      4833.79        298.63001    
       350  -29785.454      4717.6121      92861.767     -127448.44      4801.2219      298.10908    
       400  -29805.031      4772.1859      92638.431     -127446.47      5003.006       301.55763    
       450  -29840.724      4811.6393      92772.108     -127453.19      4840.3609      304.05072    
       500  -29801.676      4772.7299      92816.85      -127440.62      4822.0949      301.59201    
Loop time of 12.9841 on 30 procs for 500 steps with 9401 atoms

Performance: 6.654 ns/day, 3.607 hours/ns, 38.509 timesteps/s, 362.021 katom-step/s
94.1% CPU use with 30 MPI tasks x 1 OpenMP threads

MPI task timing breakdown:
Section |  min time  |  avg time  |  max time  |%varavg| %total
---------------------------------------------------------------
Pair    | 1.1166     | 2.3136     | 3.6894     |  48.1 | 17.82
Bond    | 0.00026117 | 0.00051713 | 0.00081315 |   0.0 |  0.00
Kspace  | 2.7084     | 4.0952     | 5.2948     |  36.3 | 31.54
Neigh   | 0.98246    | 0.98783    | 0.99448    |   0.3 |  7.61
Comm    | 0.34557    | 0.37983    | 0.41657    |   3.4 |  2.93
Output  | 0.00097953 | 0.0010133  | 0.0013775  |   0.2 |  0.01
Modify  | 5.1587     | 5.1867     | 5.2142     |   0.6 | 39.95
Other   |            | 0.01942    |            |       |  0.15

Nlocal:        313.367 ave         367 max         276 min
Histogram: 5 4 7 1 2 0 4 4 2 1
Nghost:        7686.97 ave        9443 max        5980 min
Histogram: 12 0 0 0 0 0 2 10 0 6
Neighs:         213413 ave      257519 max      111778 min
Histogram: 3 2 1 0 0 0 0 8 12 4

Total # of neighbors = 6402396
Ave neighs/atom = 681.03351
Ave special neighs/atom = 1.6919477
Neighbor list builds = 47
Dangerous builds = 28

    write_dump solvent xyz water_ions.xyz
    write_data equilibrated_structure.data
System init for write_data ...
PPPM/electrode initialization ...
  using 12-bit tables for long-range coulomb (src/kspace.cpp:342)
  G vector (1/distance) = 0.23783319
  grid = 40 45 100
  stencil order = 5
  estimated absolute RMS force accuracy = 0.00036351835
  estimated relative force accuracy = 1.0947247e-06
  using double precision FFTW3
  3d grid and FFT values/proc = 45144 22200
Generated 15 of 15 mixed pair_coeff terms from arithmetic mixing rule
WARNING: Neighbor exclusions used with KSpace solver may give inconsistent Coulombic energies (src/neighbor.cpp:654)

    ## ======== production run ========


    reset_timestep 0
    # Dump to also show the changing charge of the walls
    dump alldump all custom 50 wallcharge_${l_tf}.lammpstrj id type x y z q
    dump alldump all custom 50 wallcharge_4.5.lammpstrj id type x y z q
    thermo 500 # frequency log file
    #
    variable doutx equal 50 # 0.1ps
    #
    #dump xtc all xtc ${doutx} traj.xtc
    run 20000
PPPM/electrode initialization ...
  using 12-bit tables for long-range coulomb (src/kspace.cpp:342)
  G vector (1/distance) = 0.23783319
  grid = 40 45 100
  stencil order = 5
  estimated absolute RMS force accuracy = 0.00036351835
  estimated relative force accuracy = 1.0947247e-06
  using double precision FFTW3
  3d grid and FFT values/proc = 45144 22200
Generated 15 of 15 mixed pair_coeff terms from arithmetic mixing rule
WARNING: Neighbor exclusions used with KSpace solver may give inconsistent Coulombic energies (src/neighbor.cpp:654)
Per MPI rank memory allocation (min/avg/max) = 27.35 | 27.86 | 29.57 Mbytes
   Step         PotEng         KinEng         E_coul         E_long         E_vdwl      c_watertemp  
         0  -29801.676      4772.7299      92816.85      -127440.62      4822.0949      301.59201    
       500  -29575.463      4718.8515      93158.162     -127442.63      4709.0095      298.1874     
      1000  -29636.784      4659.9112      92992.135     -127448.65      4819.7342      294.46292    
      1500  -29645.921      4679.047       93138.569     -127446.38      4661.89        295.67212    
      2000  -29700.132      4634.9425      93081.605     -127446.68      4664.9389      292.88513    
      2500  -29888.658      4816.6604      92615.229     -127447.18      4943.2957      304.36801    
      3000  -29756.878      4672.194       92750.922     -127443.84      4936.0397      295.23908    
      3500  -29743.077      4646.7022      92823.613     -127449.02      4882.3253      293.62824    
      4000  -29711.659      4711.3555      92885.984     -127445.44      4847.7936      297.71372    
      4500  -29705.778      4713.7629      92836.48      -127448.49      4906.2324      297.86584    
      5000  -29779.094      4684.021       92791.709     -127442.52      4871.7206      295.98644    
      5500  -29706.078      4663.6612      92772.411     -127448.87      4970.3836      294.69989    
      6000  -29779.646      4737.9049      92988.067     -127444.2       4676.485       299.39139    
      6500  -29954.118      4727.5185      92599.35      -127444.75      4891.2773      298.73507    
      7000  -29753.565      4781.4579      92901.57      -127446.79      4791.6542      302.14354    
      7500  -29813.921      4667.7698      92722.602     -127446.28      4909.7534      294.95951    
      8000  -29716.822      4765.5984      92916.876     -127446.94      4813.245       301.14136    
      8500  -29738.446      4764.6492      92823.818     -127447.11      4884.8456      301.08139    
      9000  -29758.107      4724.7338      92759.191     -127447.03      4929.7317      298.5591     
      9500  -29777.87       4727.3844      92937.822     -127445.47      4729.7837      298.72659    
     10000  -29686.884      4839.0465      92828.129     -127447.5       4932.491       305.7826     
     10500  -29616.98       4828.0611      92958.577     -127450.74      4875.1846      305.08842    
     11000  -29738.147      4700.3636      92689.289     -127442.93      5015.4985      297.01913    
     11500  -29707.325      4734.2842      92810.991     -127443.38      4925.0633      299.1626     
     12000  -29795.643      4850.1662      92781.584     -127446.11      4868.8781      306.48526    
     12500  -29824.73       4776.0856      92611.467     -127451.79      5015.5974      301.80406    
     13000  -29822.108      4788.7203      92796.678     -127447.74      4828.9541      302.60245    
     13500  -29814.208      4795.9197      92746.46      -127452.5       4891.8347      303.05739    
     14000  -29897.383      4820.7859      92677.922     -127448.9       4873.5932      304.6287     
     14500  -29707.854      4728.3763      92836.104     -127441.06      4897.1016      298.78928    
     15000  -29842.417      4750.73        92639.646     -127450.31      4968.2506      300.20182    
     15500  -29704.531      4733.6569      92919.047     -127446.53      4822.9531      299.12296    
     16000  -29698.854      4669.7124      92897.407     -127445.24      4848.9819      295.08227    
     16500  -29696.9        4692.5947      93017.826     -127444.36      4729.6351      296.52821    
     17000  -29676.684      4764.426       92920.337     -127446.27      4849.2488      301.06728    
     17500  -29763.161      4696.1005      92844.323     -127450.1       4842.6198      296.74975    
     18000  -29554.422      4706.178       93049.859     -127440.41      4836.1303      297.38655    
     18500  -29909.961      4757.2514      92688.489     -127445.9       4847.449       300.61391    
     19000  -29718.213      4670.2539      92841.033     -127438.16      4878.9153      295.11648    
     19500  -29896.14       4782.4371      92651.394     -127447.43      4899.8944      302.20541    
     20000  -29711.383      4734.9024      92800.893     -127446.98      4934.7051      299.20166    
Loop time of 486.585 on 30 procs for 20000 steps with 9401 atoms

Performance: 7.103 ns/day, 3.379 hours/ns, 41.103 timesteps/s, 386.407 katom-step/s
93.8% CPU use with 30 MPI tasks x 1 OpenMP threads

MPI task timing breakdown:
Section |  min time  |  avg time  |  max time  |%varavg| %total
---------------------------------------------------------------
Pair    | 47.121     | 88.082     | 130.07     | 198.7 | 18.10
Bond    | 0.01109    | 0.020158   | 0.031578   |   3.9 |  0.00
Kspace  | 119.9      | 162.73     | 204.09     | 147.7 | 33.44
Neigh   | 31.773     | 32.041     | 32.387     |   2.9 |  6.58
Comm    | 12.435     | 15.106     | 17.583     |  34.5 |  3.10
Output  | 0.5557     | 0.72296    | 0.88823    |  11.8 |  0.15
Modify  | 185.59     | 187.1      | 188.63     |   5.5 | 38.45
Other   |            | 0.7908     |            |       |  0.16

Nlocal:        313.367 ave         364 max         257 min
Histogram: 1 1 4 9 3 0 0 4 5 3
Nghost:        7681.87 ave        9448 max        6029 min
Histogram: 12 0 0 0 0 0 6 6 0 6
Neighs:         213102 ave      256566 max      119842 min
Histogram: 2 4 0 0 0 0 3 4 12 5

Total # of neighbors = 6393056
Ave neighs/atom = 680.04
Ave special neighs/atom = 1.6919477
Neighbor list builds = 1930
Dangerous builds = 1322
    unfix conp1
    fix conp2 lower electrode/conp 0.5 2.925 couple upper -0.5
1440 atoms in group conp_group
    fix_modify conp2 tf 1 ${l_tf} ${d}
    fix_modify conp2 tf 1 4.5 ${d}
    fix_modify conp2 tf 1 4.5 6.81038626666667
    fix_modify conp2 tf 6 ${l_tf} ${d}
    fix_modify conp2 tf 6 4.5 ${d}
    fix_modify conp2 tf 6 4.5 6.81038626666667
    run         200000 # 400 ps
PPPM/electrode initialization ...
  using 12-bit tables for long-range coulomb (src/kspace.cpp:342)
  G vector (1/distance) = 0.23783319
  grid = 40 45 100
  stencil order = 5
  estimated absolute RMS force accuracy = 0.00036351835
  estimated relative force accuracy = 1.0947247e-06
  using double precision FFTW3
  3d grid and FFT values/proc = 45144 22200
Generated 15 of 15 mixed pair_coeff terms from arithmetic mixing rule
WARNING: Neighbor exclusions used with KSpace solver may give inconsistent Coulombic energies (src/neighbor.cpp:654)
Neighbor list info ...
  update: every = 1 steps, delay = 10 steps, check = yes
  max neighbors/atom: 2000, page size: 100000
  master list distance cutoff = 16
  ghost atom cutoff = 16
  binsize = 8, bins = 6 6 7
  2 neighbor lists, perpetual/occasional/extra = 2 0 0
  (1) pair lj/cut/coul/long, perpetual
      attributes: half, newton on
      pair build: half/bin/newton
      stencil: half/bin/3d
      bin: standard
  (2) fix electrode/conp, perpetual, copy from (1)
      attributes: half, newton on
      pair build: copy
      stencil: none
      bin: none
Per MPI rank memory allocation (min/avg/max) = 28.61 | 29.13 | 30.84 Mbytes
   Step         PotEng         KinEng         E_coul         E_long         E_vdwl      c_watertemp  
     20000  -29709.507      4734.9024      92801.372     -127445.58      4934.7051      299.20166    
     20500  -29838.621      4777.4132      92537.041     -127443.82      5068.1623      301.88795    
     21000  -29777.407      4731.2345      92811.59      -127447.44      4858.4427      298.96988    
     21500  -29707.585      4798.9278      92819.047     -127450.97      4924.3388      303.24747    
     22000  -29752.007      4812.3465      92785.659     -127447.95      4910.2825      304.09541    
     22500  -29724.705      4797.3985      92871.59      -127436.84      4840.5439      303.15083    
     23000  -29776.81       4744.713       92758.243     -127447.39      4912.3381      299.8216     
     23500  -29659.369      4732.8829      92861.474     -127448.57      4927.7317      299.07405    
     24000  -29695.738      4639.1181      92812.316     -127439.57      4931.5156      293.14899    
     24500  -29724.231      4586.2841      92801.645     -127446         4920.1275      289.81037    
     25000  -29627.226      4814.3258      93112.413     -127449.7       4710.0635      304.22048    
     25500  -29688.269      4823.8781      92745.403     -127443.42      5009.7506      304.8241     
     26000  -29795.612      4750.5401      92723.753     -127446.67      4927.3031      300.18982    
     26500  -29672.616      4803.7901      93022.656     -127443.56      4748.29        303.55472    
     27000  -29668.595      4723.1947      92832.733     -127450.57      4949.244       298.46184    
     27500  -29779.843      4728.5046      92823.332     -127445.92      4842.7455      298.79738    
     28000  -29749.727      4754.6631      92827.404     -127451.66      4874.5265      300.45036    
     28500  -29884.355      4696.8915      92717.344     -127446.6       4844.9001      296.79973    
     29000  -29755.765      4745.3089      92740.944     -127442.67      4945.9633      299.85926    
     29500  -29805.192      4641.8818      92694.892     -127445.52      4945.4366      293.32363    
     30000  -29635.013      4677.7734      92888.492     -127442.44      4918.938       295.59164    
     30500  -29798.666      4749.8491      92639.433     -127441.56      5003.4564      300.14615    
     31000  -29699.552      4671.7675      92933.427     -127447.49      4814.5098      295.21213    
     31500  -29721.184      4764.2661      93009.538     -127446.42      4715.6982      301.05718    
     32000  -29740.988      4805.1259      92901.771     -127451.75      4808.9944      303.63914    
     32500  -29749.878      4786.3428      92718.197     -127445.14      4977.0668      302.45222    
     33000  -29674.345      4815.422       92955.82      -127440.89      4810.7272      304.28975    
     33500  -29664.357      4715.4609      93102.797     -127450.31      4683.1524      297.97314    
     34000  -29807.28       4734.0093      92569.233     -127447.2       5070.6841      299.14523    
     34500  -29685.345      4729.299       92928.6       -127438.75      4824.8071      298.84758    
     35000  -29737.282      4768.1783      92939.318     -127444.29      4767.6944      301.30439    
     35500  -29817.956      4653.0717      92795.151     -127447.86      4834.7569      294.03073    
     36000  -29788.426      4712.1971      92648.948     -127449.41      5012.0376      297.7669     
     36500  -29835.726      4753.7433      92777.183     -127449.46      4836.555       300.39223    
     37000  -29789.198      4817.3251      92700.911     -127449.69      4959.5781      304.41001    
     37500  -29733.428      4809.9987      92898.896     -127447.7       4815.3771      303.94705    
     38000  -29803.516      4762.1272      92792.766     -127451.64      4855.3609      300.92202    
     38500  -29758.359      4717.0907      92909.011     -127445.69      4778.3194      298.07613    
     39000  -29854.746      4724.4226      92586.578     -127445.17      5003.8492      298.53944    
     39500  -29834.641      4814.9462      92752.399     -127450.35      4863.3132      304.25969    
     40000  -29804.422      4677.8369      92807.073     -127452.18      4840.681       295.59565    
     40500  -29735.392      4676.708       92871.647     -127441.79      4834.7511      295.52432    
     41000  -29841.746      4745.6425      92791.965     -127448.87      4815.1624      299.88034    
     41500  -29797.6        4806.5813      92780.97      -127447.81      4869.2368      303.7311     
     42000  -29809.177      4841.0025      92728.532     -127447.35      4909.6415      305.9062     
     42500  -29758.729      4790.4297      92828.915     -127446.48      4858.8345      302.71047    
     43000  -29801.628      4715.2722      92760.386     -127453.18      4891.1611      297.96122    
     43500  -29785.794      4827.8235      92749.386     -127446.99      4911.8064      305.07341    
     44000  -29880.871      4693.9415      92581.833     -127439.78      4977.0782      296.61331    
     44500  -29821.759      4691.8043      92860.755     -127445.67      4763.1591      296.47826    
     45000  -29761.814      4763.0307      92866.124     -127447.27      4819.336       300.97911    
     45500  -29783.429      4716.0416      92963.686     -127449.06      4701.9484      298.00984    
     46000  -29792.296      4772.3083      92798.637     -127446.19      4855.2575      301.56537    
     46500  -29762.674      4619.1237      92818.144     -127451.43      4870.6149      291.88553    
     47000  -29733.522      4683.5789      92900.329     -127450.63      4816.7804      295.95849    
     47500  -29683.399      4700.9404      92896.509     -127441.77      4861.8638      297.05558    
     48000  -29790.504      4760.4129      92706.608     -127444.99      4947.8758      300.81369    
     48500  -29791.771      4772.1471      92876.463     -127447.66      4779.4231      301.55518    
     49000  -29541.905      4775.4911      93137.927     -127438.85      4759.0175      301.76649    
     49500  -29611.744      4816.6278      93084.881     -127446.34      4749.7176      304.36595    
     50000  -29877.669      4727.5476      92675.617     -127449.38      4896.0984      298.73691    
     50500  -29807.308      4742.9168      92621.752     -127449.51      5020.4534      299.7081     
     51000  -29780.409      4866.7989      92884.496     -127448.86      4783.9592      307.5363     
     51500  -29748.716      4774.9621      92967.429     -127452.01      4735.8678      301.73306    
     52000  -29982.09       4806.9348      92571.755     -127440.17      4886.3215      303.75344    
     52500  -29748.526      4782.6001      92857.39      -127447.2       4841.2881      302.21571    
     53000  -29653.99       4654.0991      92839.282     -127444.3       4951.0252      294.09565    
     53500  -29777.261      4793.2078      92715.672     -127447.86      4954.9239      302.88602    
     54000  -29719.254      4637.4838      92755.615     -127441.91      4967.0423      293.04572    
     54500  -29917.721      4716.2545      92431.528     -127445.73      5096.4822      298.02329    
     55000  -29817.321      4702.756       92792.393     -127446.14      4836.4308      297.17031    
     55500  -29822.921      4766.8755      92727.727     -127448.76      4898.1093      301.22207    
     56000  -29766.528      4776.9818      92789.319     -127445.83      4889.9814      301.86069    
     56500  -29964.219      4731.159       92501.2       -127449.22      4983.8028      298.96512    
     57000  -29867.022      4688.1354      92706.651     -127449.73      4876.0526      296.24643    
     57500  -29700.132      4697.3473      92867.27      -127449.89      4882.4833      296.82853    
     58000  -29578.186      4708.1797      93056.621     -127440.5       4805.6914      297.51304    
     58500  -29784.91       4688.3738      92859.79      -127443.57      4798.8652      296.26149    
     59000  -29678.58       4768.6785      93000.276     -127443.99      4765.138       301.336      
     59500  -29750.751      4713.1272      92911.905     -127449.74      4787.0823      297.82568    
     60000  -29843.483      4786.7536      92655.646     -127452.31      4953.1817      302.47818    
     60500  -29808.86       4710.1754      92784.621     -127450.75      4857.2651      297.63915    
     61000  -29730.266      4745.0737      92819.925     -127453.14      4902.9444      299.8444     
     61500  -29907.078      4698.4791      92624.237     -127451.56      4920.2415      296.90005    
     62000  -29660.548      4830.4085      92909.013     -127439.82      4870.2605      305.23676    
     62500  -29894.541      4850.6108      92516.077     -127449.01      5038.3954      306.51336    
     63000  -29725.576      4752.5492      92764.482     -127441.65      4951.5872      300.31678    
     63500  -29774.746      4795.4875      92753.598     -127443.78      4915.4349      303.03008    
     64000  -29882.842      4716.9528      92580.498     -127452.13      4988.7878      298.06742    
     64500  -29704.988      4751.2878      92846.613     -127441.2       4889.6018      300.23707    
     65000  -29748.821      4683.9721      92965.995     -127440.85      4726.038       295.98334    
     65500  -29753.553      4765.3136      92854.095     -127439.87      4832.2216      301.12337    
     66000  -29751.351      4807.1841      92704.486     -127444.41      4988.5755      303.76919    
     66500  -29922.549      4709.2477      92610.387     -127451.01      4918.0713      297.58052    
     67000  -29895.64       4817.8933      92659.466     -127443.92      4888.8157      304.44592    
     67500  -29801.061      4768.1156      92890.065     -127449.96      4758.8363      301.30043    
     68000  -29702.967      4796.1718      92799.203     -127447.26      4945.0886      303.07332    
     68500  -30015.761      4768.2663      92359.343     -127445.06      5069.9584      301.30995    
     69000  -29877.748      4761.4976      92623.592     -127447.22      4945.8762      300.88223    
     69500  -29924.506      4805.3343      92452.989     -127447.88      5070.3859      303.6523     
     70000  -29840.681      4811.3852      92776.141     -127443.85      4827.0232      304.03466    
     70500  -29885.247      4741.4125      92697.267     -127444.7       4862.189       299.61304    
     71000  -29836.817      4771.452       92701.471     -127443.8       4905.5104      301.51126    
     71500  -29685.843      4810.8417      92861.915     -127438.47      4890.7161      304.00032    
     72000  -29786.006      4804.8713      92678.187     -127445.04      4980.8503      303.62304    
     72500  -29761.141      4679.5743      92699.078     -127445.85      4985.6362      295.70544    
     73000  -29890.877      4832.3163      92610.721     -127446.73      4945.1279      305.35732    
     73500  -29892.825      4750.9915      92485.313     -127451.37      5073.2354      300.21834    
     74000  -29819.076      4826.6678      92898.337     -127446.28      4728.8677      305.00038    
     74500  -29749.914      4770.1344      92845.779     -127447.74      4852.0454      301.428      
     75000  -29819.955      4837.4451      92801.89      -127448.63      4826.784       305.6814     
     75500  -29871.069      4761.2109      92677.128     -127445.03      4896.8332      300.86411    
     76000  -29907.81       4717.0715      92565.014     -127443.56      4970.7329      298.07492    
     76500  -29907.578      4756.0903      92644.479     -127448.15      4896.0928      300.54054    
     77000  -29726.064      4778.073       92867.29      -127441.2       4847.8431      301.92965    
     77500  -29654.601      4650.4338      92875.951     -127440.52      4909.9653      293.86404    
     78000  -29890.077      4864.8333      92620.997     -127444.26      4933.1886      307.41208    
     78500  -29829.231      4755.364       92799.821     -127441.82      4812.7687      300.49464    
     79000  -29775.494      4774.4346      92931.477     -127446.72      4739.7541      301.69973    
     79500  -29704.514      4691.0275      92979.853     -127442.38      4758.016       296.42918    
     80000  -29783.3        4687.1598      92749.09      -127455.34      4922.9533      296.18477    
     80500  -29668.637      4809.8445      92962.708     -127450.4       4819.0524      303.93731    
     81000  -29670.514      4772.0812      92869.893     -127446.09      4905.6784      301.55102    
     81500  -29781.422      4774.5115      92835.417     -127447.55      4830.7145      301.70459    
     82000  -29762.077      4672.0456      92686.535     -127448.54      4999.9241      295.2297     
     82500  -29792.639      4791.0388      92695.92      -127448.04      4959.4826      302.74896    
     83000  -29756.389      4661.5327      92587.667     -127450.77      5106.7117      294.56538    
     83500  -29768.906      4585.3308      92883.234     -127450.33      4798.1942      289.75013    
     84000  -29912.836      4784.1398      92668.422     -127450.04      4868.7781      302.31301    
     84500  -29831.252      4818.6077      92657.769     -127452.79      4963.7726      304.49106    
     85000  -29841.583      4754.9369      92729.86      -127446.69      4875.2469      300.46766    
     85500  -29878.162      4730.7441      92521.036     -127444.88      5045.685       298.9389     
     86000  -29757.829      4683.6895      92769.778     -127447.92      4920.3101      295.96548    
     86500  -29702.357      4699.2648      92911.592     -127442.37      4828.4233      296.9497     
     87000  -29865.895      4714.9115      92650.304     -127443.36      4927.158       297.93842    
     87500  -29760.165      4864.1741      92771.297     -127448.07      4916.6032      307.37043    
     88000  -29532.041      4746.1724      93233.063     -127450.06      4684.9592      299.91382    
     88500  -29776.931      4720.6192      92825.52      -127446.36      4843.91        298.2991     
     89000  -29687.595      4799.7435      92740.62      -127444.65      5016.435       303.29901    
     89500  -29706.116      4786.282       92909.825     -127438.81      4822.8673      302.44838    
     90000  -29780.515      4599.1391      92792.218     -127445.67      4872.9343      290.62269    
     90500  -29818.728      4724.9417      92839.712     -127452.79      4794.3475      298.57224    
     91000  -29723.176      4688.7383      93082.078     -127442.68      4637.4294      296.28452    
     91500  -29599.604      4711.5238      93018.465     -127444.38      4826.3122      297.72435    
     92000  -29674.761      4716.6027      92908.956     -127447.02      4863.2989      298.0453     
     92500  -29738.686      4714.0603      92734.733     -127448.19      4974.7758      297.88463    
     93000  -29742.733      4651.659       92790.4       -127449.62      4916.4867      293.94146    
     93500  -29884.422      4837.5405      92681.164     -127450.51      4884.9214      305.68743    
     94000  -29737.634      4784.6022      92865.902     -127447.08      4843.5408      302.34223    
     94500  -29824.757      4887.9393      92708.903     -127448.41      4914.751       308.87217    
     95000  -29846.836      4783.2884      92712.985     -127442.25      4882.4317      302.25921    
     95500  -29815.044      4717.5025      92618.406     -127445.87      5012.424       298.10215    
     96000  -29831.204      4755.5799      92688.351     -127445.53      4925.9735      300.50829    
     96500  -29735.818      4706.5674      92821.195     -127444.94      4887.9292      297.41115    
     97000  -29844.015      4718.2373      92687.448     -127446.83      4915.367       298.14859    
     97500  -29608.517      4754.0354      93070.859     -127451.12      4771.7425      300.41069    
     98000  -29634.612      4768.2965      92913.097     -127450.3       4902.5958      301.31186    
     98500  -29817.148      4775.1753      92694.556     -127447.77      4936.0663      301.74654    
     99000  -29770.272      4767.685       92762.778     -127442.62      4909.5672      301.27322    
     99500  -29776.161      4800.9028      92872.831     -127444.76      4795.765       303.37227    
    100000  -29733.15       4835.3967      92728.884     -127443.4       4981.3699      305.55196    
    100500  -29801.277      4737.7049      92629.281     -127447.88      5017.3223      299.37875    
    101000  -29828.706      4770.2413      92574.579     -127452.91      5049.6294      301.43475    
    101500  -29733.141      4776.8739      92798.686     -127442.84      4911.0158      301.85387    
    102000  -29689.995      4782.6565      92907.01      -127452.55      4855.5499      302.21928    
    102500  -29785.427      4622.5912      92857.078     -127451.86      4809.3588      292.10465    
    103000  -29735.94       4824.0833      92958.77      -127449.36      4754.6522      304.83706    
    103500  -29844.663      4747.8309      92798.777     -127450.79      4807.3516      300.01862    
    104000  -29787.751      4715.3917      92682.907     -127443.4       4972.7394      297.96877    
    104500  -29821.437      4754.9926      92630.346     -127445.7       4993.9176      300.47118    
    105000  -29843.402      4703.6456      92732.941     -127436.49      4860.1472      297.22653    
    105500  -29882.465      4791.7106      92633.725     -127445.62      4929.4337      302.79141    
    106000  -29800.36       4735.3619      92805.898     -127443.48      4837.2181      299.2307     
    106500  -29681.849      4722.2724      92902.288     -127454.68      4870.5443      298.40357    
    107000  -29724.229      4816.8043      92934.887     -127447.79      4788.6743      304.3771     
    107500  -29831.34       4784.8855      92734.333     -127444.94      4879.2628      302.36013    
    108000  -29709.984      4758.7558      92749.35      -127440.65      4981.3159      300.70898    
    108500  -29761.31       4810.7033      92754.878     -127446.39      4930.2032      303.99157    
    109000  -29756.615      4793.7855      92815.994     -127444.65      4872.036       302.92253    
    109500  -29834.316      4799.6827      92687.696     -127448.03      4926.0219      303.29518    
    110000  -29758.889      4761.6295      92745.652     -127450.49      4945.9441      300.89057    
    110500  -29640.299      4771.8062      92880.353     -127447.22      4926.5649      301.53364    
    111000  -29683.345      4706.455       92965.231     -127442.46      4793.88        297.40405    
    111500  -29604.755      4691.6824      92982.305     -127441         4853.9376      296.47056    
    112000  -29734.189      4803.635       92799.428     -127451.34      4917.725       303.54492    
    112500  -29921.45       4730.9849      92504.814     -127441.85      5015.5871      298.95411    
    113000  -29837.14       4779.083       92801.506     -127447.59      4808.9403      301.99346    
    113500  -29838.734      4797.6764      92594.345     -127449.06      5015.9814      303.1684     
    114000  -29791.125      4830.6383      92745.19      -127445.71      4909.3958      305.25128    
    114500  -29792.2        4768.2273      92689.959     -127448.71      4966.5506      301.30749    
    115000  -29759.445      4665.9216      92828.155     -127441.16      4853.5567      294.84272    
    115500  -29718.933      4863.7635      92835.87      -127441.67      4886.8709      307.34448    
    116000  -29857.4        4751.6848      92816.635     -127446.52      4772.4873      300.26216    
    116500  -29842.929      4745.4304      92642.856     -127453.45      4967.667       299.86694    
    117000  -29739.923      4752.6785      92850.048     -127445.97      4855.9985      300.32495    
    117500  -29865.734      4764.4195      92689.125     -127450.56      4895.6995      301.06687    
    118000  -29879.227      4729.3481      92647.668     -127444.74      4917.8467      298.85069    
    118500  -29722.947      4671.9823      92965.162     -127443.88      4755.7667      295.2257     
    119000  -29751.864      4750.3846      92917.66      -127448.19      4778.6699      300.18       
    119500  -29782.912      4637.007       92845.84      -127452.79      4824.0328      293.01559    
    120000  -29757.517      4766.6631      92833.934     -127445.98      4854.5329      301.20864    
    120500  -29650.187      4632.953       92801.134     -127443.73      4992.406       292.75941    
    121000  -29965.829      4717.8583      92491.12      -127448.21      4991.2639      298.12463    
    121500  -29757.774      4812.5305      92909.802     -127446.59      4779.013       304.10703    
    122000  -29760.806      4695.2569      92894.522     -127447.06      4791.7303      296.69644    
    122500  -29848.178      4795.7014      92697.908     -127439.65      4893.5641      303.04359    
    123000  -29815.782      4634.6886      92674.277     -127451.38      4961.3259      292.86908    
    123500  -29747.765      4789.2836      92793.999     -127447.29      4905.5299      302.63805    
    124000  -29784.393      4786.4343      92769.866     -127436.94      4882.6778      302.458      
    124500  -29783.057      4819.4103      92729.399     -127438.13      4925.6734      304.54177    
    125000  -29801.697      4791.2132      92734.087     -127455.01      4919.2294      302.75998    
    125500  -29710.771      4795.0249      92817.436     -127439.03      4910.8202      303.00084    
    126000  -29800.56       4732.3096      92791.281     -127447.76      4855.9225      299.03783    
    126500  -29779.49       4770.2408      92816.445     -127448.95      4853.0186      301.43472    
    127000  -29861.443      4742.9827      92926.909     -127450.51      4662.1549      299.71226    
    127500  -29876.654      4779.2003      92687.942     -127436.19      4871.5902      302.00088    
    128000  -29833.194      4815.9593      92687.17      -127449.32      4928.9579      304.3237     
    128500  -29672.447      4709.0803      92981.265     -127442.07      4788.3528      297.56995    
    129000  -29755.065      4772.2277      92953.25      -127453.61      4745.2927      301.56028    
    129500  -29781.433      4676.8006      92768.574     -127452.89      4902.8857      295.53017    
    130000  -29636.812      4747.9392      92942.749     -127447.38      4867.8144      300.02547    
    130500  -29737.373      4752.0361      92847.294     -127451.98      4867.3155      300.28435    
    131000  -29796.926      4791.2844      92737.457     -127444.42      4910.0409      302.76448    
    131500  -29673.347      4735.8105      93078.746     -127445.21      4693.1202      299.25904    
    132000  -29931.162      4779.7332      92600.893     -127448.17      4916.1112      302.03455    
    132500  -29744.695      4729.5514      92773.492     -127444.85      4926.6612      298.86353    
    133000  -29825.024      4698.4945      92548.822     -127444.69      5070.8416      296.90102    
    133500  -29919.87       4721.3427      92546.326     -127452.64      4986.4468      298.34482    
    134000  -29808.506      4713.8562      92701.581     -127444.13      4934.0429      297.87174    
    134500  -29857.87       4799.2822      92728.001     -127445.32      4859.4481      303.26987    
    135000  -29831.143      4717.7912      92689.119     -127449.18      4928.9194      298.12039    
    135500  -29928.024      4820.275       92661.992     -127444.86      4854.846       304.59642    
    136000  -29942.596      4737.2424      92711.486     -127450.78      4796.6937      299.34953    
    136500  -29698.034      4756.264       92981.804     -127455.65      4775.8084      300.55152    
    137000  -29636.24       4683.8391      92846.529     -127449.18      4966.4112      295.97494    
    137500  -29705.139      4710.4242      92804.474     -127450.28      4940.6695      297.65487    
    138000  -29679.251      4801.453       92878.115     -127448.98      4891.6151      303.40704    
    138500  -29815.057      4745.6293      92657.316     -127445.21      4972.8343      299.8795     
    139000  -29829.118      4784.0808      92550.752     -127448.38      5068.5122      302.30928    
    139500  -29714.415      4711.3255      93046.678     -127456.05      4694.9602      297.71183    
    140000  -29800.818      4784.735       92860.703     -127451.19      4789.6646      302.35062    
    140500  -29809.15       4720.6475      92785.127     -127449.95      4855.6689      298.30089    
    141000  -29664.176      4705.5927      92941.884     -127451.58      4845.522       297.34957    
    141500  -29795.639      4804.0801      92882.946     -127450.8       4772.2201      303.57305    
    142000  -29631.451      4751.6463      93002.226     -127451.45      4817.7779      300.25972    
    142500  -29913.917      4685.1039      92620.93      -127445.03      4910.1831      296.05486    
    143000  -29785.046      4692.0994      92713.001     -127447.69      4949.6419      296.49691    
    143500  -29824.791      4694.2335      92676.565     -127450.7       4949.3456      296.63177    
    144000  -29835.269      4807.3262      92625.272     -127442.21      4981.6655      303.77817    
    144500  -29650.011      4748.8546      92980.583     -127441.85      4811.2602      300.08331    
    145000  -29747.163      4686.777       92904.84      -127446.42      4794.4139      296.16058    
    145500  -29700.916      4899.9457      92942.508     -127449.59      4806.169       309.63086    
    146000  -29805.897      4739.0402      92713.491     -127441.1       4921.7088      299.46313    
    146500  -29798.143      4703.7444      92699.252     -127451.9       4954.5077      297.23277    
    147000  -29807.723      4740.2292      92684.02      -127444.82      4953.0756      299.53827    
    147500  -29769.334      4862.0329      92682.623     -127445.26      4993.3004      307.23512    
    148000  -29898.152      4669.5142      92705.896     -127446.18      4842.1362      295.06974    
    148500  -29772.748      4746.3351      92819.352     -127442.74      4850.6398      299.9241     
    149000  -29737.988      4688.0465      92851.545     -127442.04      4852.5074      296.24081    
    149500  -29944.17       4669.3662      92604.833     -127455.73      4906.7278      295.06039    
    150000  -29699.731      4630.6719      92967.509     -127449.54      4782.3024      292.61527    
    150500  -29837.988      4770.6202      92709.321     -127443.43      4896.1175      301.45869    
    151000  -29746.088      4745.7858      92812.565     -127442.08      4883.4279      299.88939    
    151500  -29813.557      4698.9388      92627.79      -127447.93      5006.5874      296.9291     
    152000  -29855.99       4831.8625      92706.628     -127452.62      4889.9988      305.32864    
    152500  -29865.243      4712.5008      92461.556     -127440.3       5113.4975      297.78609    
    153000  -29798.432      4707.9946      92735.626     -127447.91      4913.8542      297.50134    
    153500  -29854.642      4725.5923      92657.271     -127441.42      4929.5072      298.61335    
    154000  -29892.257      4816.0565      92714.543     -127446.24      4839.4384      304.32985    
    154500  -29715.145      4802.2735      92949.223     -127445.03      4780.6595      303.45889    
    155000  -29832.152      4744.0384      92570.447     -127449.76      5047.164       299.77897    
    155500  -29894.342      4664.3561      92518.667     -127437.82      5024.8122      294.7438     
    156000  -29897.345      4775.4751      92702.998     -127444.88      4844.5346      301.76548    
    156500  -29880.446      4742.837       92668.174     -127449.16      4900.5441      299.70306    
    157000  -29767.131      4800.3147      92758.449     -127445.8       4920.2161      303.33511    
    157500  -29829.515      4809.0552      92665.916     -127447.57      4952.1357      303.88743    
    158000  -29799.477      4639.0637      92733.578     -127443.16      4910.1087      293.14555    
    158500  -29663.368      4773.7202      92899.263     -127447.95      4885.3173      301.65459    
    159000  -29639.291      4753.7826      93012.263     -127439.71      4788.155       300.39472    
    159500  -29736.516      4689.5336      92826.336     -127444.98      4882.1309      296.33478    
    160000  -29720.129      4748.6955      92774.135     -127443.84      4949.5783      300.07326    
    160500  -29766.218      4743.6463      92815.422     -127443.64      4862.0045      299.7542     
    161000  -29910.027      4742.6391      92744.736     -127449.89      4795.1282      299.69055    
    161500  -29735.697      4797.8421      92944.091     -127446.97      4767.1838      303.17886    
    162000  -29637.915      4709.7159      92981.812     -127444.99      4825.2655      297.61011    
    162500  -29676.161      4732.2309      92993.558     -127444.69      4774.9737      299.03285    
    163000  -29819.735      4645.8743      92555.666     -127449.6       5074.2016      293.57592    
    163500  -29951.087      4734.2333      92515.415     -127445.27      4978.765       299.15938    
    164000  -29853.716      4825.8089      92576.156     -127444.5       5014.6246      304.9461     
    164500  -29850.377      4745.6337      92804.042     -127439.25      4784.8286      299.87978    
    165000  -29756.819      4805.2751      92716.027     -127442.99      4970.1455      303.64856    
    165500  -29714.971      4827.8785      92819.578     -127445.61      4911.0569      305.07688    
    166000  -29763.742      4779.8979      92727.697     -127437.83      4946.3915      302.04496    
    166500  -29879.746      4809.5339      92612.617     -127449.3       4956.9341      303.91768    
    167000  -29726.899      4758.0285      92886.171     -127444.86      4831.7912      300.66302    
    167500  -29757.991      4717.0819      92804.667     -127448.79      4886.1373      298.07557    
    168000  -29739.481      4762.7609      92946.491     -127452.93      4766.9574      300.96206    
    168500  -29932.845      4781.5225      92608.914     -127450.53      4908.7661      302.14762    
    169000  -29757.824      4710.5687      92876.13      -127445.46      4811.5074      297.664      
    169500  -29745.917      4773.9891      92788.951     -127440.84      4905.9732      301.67158    
    170000  -29892.718      4733.2997      92684.853     -127444.92      4867.3462      299.10039    
    170500  -29742.061      4803.2227      92869.315     -127445.92      4834.5426      303.51887    
    171000  -29782.388      4735.4203      92783.434     -127447.52      4881.6993      299.23439    
    171500  -29831.812      4701.9723      92848.986     -127446.28      4765.4787      297.12079    
    172000  -29569.475      4844.3433      92990.629     -127444.12      4884.019       306.11731    
    172500  -29837.015      4708.7461      92677.999     -127451.13      4936.1124      297.54883    
    173000  -29793.634      4724.5407      92679.684     -127435.27      4961.9529      298.5469     
    173500  -29783.966      4745.124       92790.06      -127443.14      4869.1112      299.84757    
    174000  -29834.6        4698.1723      92718.854     -127452.43      4898.973       296.88066    
    174500  -29842.229      4748.8395      92588.665     -127443.66      5012.7619      300.08236    
    175000  -29650.725      4709.8492      92959.007     -127441.93      4832.1987      297.61854    
    175500  -29626.774      4762.6682      92880.698     -127449.09      4941.6181      300.9562     
    176000  -29719.147      4790.1323      92922.461     -127440.82      4799.2119      302.69168    
    176500  -29801.529      4688.6062      92734.442     -127448.69      4912.7183      296.27618    
    177000  -29676.949      4738.3626      92904.9       -127444.59      4862.7446      299.42032    
    177500  -29596.643      4737.0996      92903.291     -127439.7       4939.7625      299.34051    
    178000  -29822.178      4798.1488      92785.566     -127445.44      4837.6919      303.19825    
    178500  -29662.332      4684.8255      92994.519     -127437.08      4780.2325      296.03727    
    179000  -29849          4660.9649      92784.037     -127452.01      4818.9726      294.5295     
    179500  -29883.789      4654.6253      92739.159     -127446.25      4823.2977      294.1289     
    180000  -29730.66       4663.4409      92758.146     -127447.99      4959.1888      294.68596    
    180500  -29812.31       4769.7117      92667.675     -127444.21      4964.2293      301.40129    
    181000  -29887.444      4699.4417      92507.949     -127450.37      5054.9733      296.96088    
    181500  -29945.53       4700.5127      92684.491     -127448.52      4818.4946      297.02855    
    182000  -29796.677      4707.08        92794.341     -127457.14      4866.1265      297.44355    
    182500  -29783.103      4699.2341      92808.332     -127448.03      4856.5943      296.94776    
    183000  -29816.398      4681.2521      92761.788     -127444.74      4866.5492      295.81147    
    183500  -29701.427      4720.8637      93089.769     -127440.01      4648.8141      298.31455    
    184000  -29927.43       4752.2611      92675.849     -127446.04      4842.756       300.29857    
    184500  -29739.754      4673.3892      92972.974     -127452.57      4739.8384      295.31461    
    185000  -29736.664      4746.3139      93047.107     -127451.15      4667.3789      299.92276    
    185500  -29837.45       4722.4914      92798.766     -127447.92      4811.7036      298.4174     
    186000  -29927.299      4825.3877      92471.305     -127443.22      5044.6167      304.91949    
    186500  -29762.212      4659.6475      92886.04      -127452.19      4803.9327      294.44626    
    187000  -29875.362      4786.7042      92529.732     -127438.82      5033.7223      302.47505    
    187500  -29679.071      4721.4125      92878.671     -127445.16      4887.4197      298.34923    
    188000  -29751.893      4763.7399      92886.107     -127443.43      4805.4349      301.02392    
    188500  -29833.922      4776.7363      92816.581     -127453.46      4802.9539      301.84518    
    189000  -29692.382      4648.4835      92908.19      -127444.29      4843.7139      293.74079    
    189500  -29739.578      4682.0371      92774.419     -127445.15      4931.154       295.86107    
    190000  -29829.704      4833.213       92768.153     -127449.25      4851.3942      305.41398    
    190500  -29695.642      4811.5228      92959.071     -127444.83      4790.1212      304.04336    
    191000  -29809.181      4759.8478      92860.239     -127449.04      4779.6193      300.77798    
    191500  -29885.906      4727.0752      92669.182     -127447.43      4892.3388      298.70706    
    192000  -29986.534      4715.6806      92536.75      -127443.04      4919.7576      297.98702    
    192500  -30027.121      4764.4409      92298.264     -127444.38      5118.9968      301.06822    
    193000  -29740.221      4731.793       92775.663     -127437.22      4921.3317      299.00518    
    193500  -29814.75       4783.1971      92692.64      -127437.67      4930.2761      302.25344    
    194000  -29788.53       4728.2174      92827.581     -127446.71      4830.6031      298.77924    
    194500  -29799.751      4763.173       92632.16      -127450.04      5018.1267      300.9881     
    195000  -29640.079      4717.0939      93106.79      -127448.12      4701.2471      298.07633    
    195500  -29769.034      4737.4457      92758.879     -127445.26      4917.35        299.36238    
    196000  -29842.437      4726.7626      92621.059     -127441.39      4977.8993      298.6873     
    196500  -29655.215      4852.6976      93013.367     -127449.76      4781.1762      306.64522    
    197000  -29837.407      4709.491       92798.803     -127445.08      4808.8724      297.5959     
    197500  -29812.234      4708.7273      92927.882     -127441.45      4701.3382      297.54764    
    198000  -29895.233      4693.7921      92675.35      -127443.38      4872.8002      296.60388    
    198500  -29804.882      4737.8028      92727.744     -127448.42      4915.7923      299.38494    
    199000  -29743.196      4763.4428      92747.276     -127451.83      4961.3532      301.00515    
    199500  -29739.099      4734.3448      92914.265     -127449.87      4796.5032      299.16643    
    200000  -29844.888      4706.4815      92785.551     -127438.61      4808.1696      297.40573    
    200500  -29661.188      4765.1261      92956.799     -127450.35      4832.3624      301.11152    
    201000  -29844.424      4747.3747      92551.484     -127440.92      5045.0159      299.9898     
    201500  -29682.624      4766.9319      92890.509     -127441.93      4868.7964      301.22563    
    202000  -29776.097      4792.7549      92786.835     -127442.31      4879.3784      302.8574     
    202500  -29831.085      4727.059       92766.445     -127450.54      4853.0063      298.70603    
    203000  -29748.893      4734.4177      92890.243     -127446.89      4807.7583      299.17104    
    203500  -29808.761      4742.2302      92741.385     -127439.6       4889.4528      299.66471    
    204000  -29655.79       4712.2422      92836.771     -127445.55      4952.9857      297.76975    
    204500  -29852.895      4759.3241      92621.442     -127444.59      4970.2485      300.74489    
    205000  -29852.388      4766.1098      92644.437     -127452.04      4955.213       301.17368    
    205500  -29881.706      4753.5076      92624.857     -127445.75      4939.1871      300.37734    
    206000  -29940.995      4643.172       92534.722     -127450.08      4974.3679      293.40516    
    206500  -29786.846      4713.7261      92772.237     -127449.32      4890.241       297.86352    
    207000  -29786.716      4786.3415      92926.733     -127453.52      4740.0663      302.45214    
    207500  -29846.016      4719.8599      92746.692     -127442.85      4850.1407      298.25112    
    208000  -29767.592      4752.3459      92813.971     -127456.93      4875.366       300.30393    
    208500  -29827.15       4743.5336      92778.325     -127444.26      4838.7843      299.74707    
    209000  -29799.777      4675.5592      92748.469     -127443.15      4894.9049      295.45172    
    209500  -29762.909      4766.506       92793.604     -127446.42      4889.9066      301.19872    
    210000  -29716.591      4761.6587      92773.127     -127442.71      4952.9898      300.89241    
    210500  -29752.946      4701.4683      92694.244     -127443.83      4996.6413      297.08894    
    211000  -29770.308      4746.355       92906.541     -127440.31      4763.4601      299.92536    
    211500  -29899.111      4746.8864      92758.987     -127448.3       4790.1999      299.95894    
    212000  -29745.373      4697.154       92790.333     -127443.66      4907.9552      296.81632    
    212500  -29656.264      4770.2004      93103.695     -127445.38      4685.4219      301.43217    
    213000  -29721.967      4681.8263      92811.309     -127446.15      4912.8734      295.84775    
    213500  -29886.278      4764.7238      92575.328     -127445.5       4983.8966      301.0861     
    214000  -29853.488      4808.6827      92723.178     -127443.25      4866.5864      303.86389    
    214500  -29778.414      4797.3478      92760.142     -127445.61      4907.0557      303.14763    
    215000  -29958.87       4799.3679      92478.536     -127445.46      5008.0501      303.27528    
    215500  -29747.139      4644.6713      92716.638     -127445.8       4982.0242      293.4999     
    216000  -29866.883      4690.2658      92723.238     -127452.3       4862.1789      296.38105    
    216500  -29681.774      4861.2231      92898.001     -127444.55      4864.7766      307.18395    
    217000  -29912.025      4786.6495      92705.514     -127440.04      4822.4976      302.4716     
    217500  -29796.05       4733.4024      92803.041     -127446.67      4847.5758      299.10688    
    218000  -29712.977      4743.7306      92842.5       -127446.82      4891.3425      299.75952    
    218500  -29760.609      4696.0615      92806.381     -127450.25      4883.2584      296.74728    
    219000  -29724.895      4786.0745      92815.022     -127446.89      4906.9705      302.43526    
    219500  -29826.008      4699.5127      92732.769     -127441.71      4882.929       296.96537    
    220000  -29836.377      4724.1474      92555.627     -127449.66      5057.6553      298.52205    
Loop time of 5216.18 on 30 procs for 200000 steps with 9401 atoms

Performance: 6.626 ns/day, 3.622 hours/ns, 38.342 timesteps/s, 360.455 katom-step/s
94.2% CPU use with 30 MPI tasks x 1 OpenMP threads

MPI task timing breakdown:
Section |  min time  |  avg time  |  max time  |%varavg| %total
---------------------------------------------------------------
Pair    | 467.32     | 894.66     | 1288.7     | 721.7 | 17.15
Bond    | 0.12776    | 0.20578    | 0.29451    |   9.6 |  0.00
Kspace  | 1254.6     | 1646.1     | 2076       | 532.4 | 31.56
Neigh   | 388.68     | 391.07     | 394.16     |   7.4 |  7.50
Comm    | 129.48     | 149.21     | 165.93     |  72.7 |  2.86
Output  | 6.0042     | 8.0645     | 10.137     |  43.9 |  0.15
Modify  | 2105.5     | 2119.1     | 2129.2     |  11.1 | 40.63
Other   |            | 7.811      |            |       |  0.15

Nlocal:        313.367 ave         359 max         274 min
Histogram: 5 3 6 2 2 0 0 5 2 5
Nghost:        7688.17 ave        9433 max        5996 min
Histogram: 12 0 0 0 0 0 0 12 0 6
Neighs:         213325 ave      257286 max      121594 min
Histogram: 4 2 0 0 0 0 4 5 7 8

Total # of neighbors = 6399736
Ave neighs/atom = 680.75056
Ave special neighs/atom = 1.6919477
Neighbor list builds = 19310
Dangerous builds = 13288
    #write_data structure.data
    undump alldump
    next l
    unfix conp2
    jump SELF loop_start
    variable l_tf equal ${l}/2
    variable l_tf equal 10/2
    # fix id group1 electrode/conp psi1 eta couple group2 psi2 write_inv
    # fix conp1 lower electrode/conp 0.0 5 couple upper 0.0 write_inv inv.out etypes 1*6 # Write call to not have to determine the matrix twice
    fix conp1 lower electrode/conp 0.0 2.925 couple upper 0.0# Write call to not have to determine the matrix twice
1440 atoms in group conp_group
    fix_modify conp1 tf 1 ${l_tf} ${d}
    fix_modify conp1 tf 1 5 ${d}
    fix_modify conp1 tf 1 5 6.81038626666667
    fix_modify conp1 tf 6 ${l_tf} ${d}
    fix_modify conp1 tf 6 5 ${d}
    fix_modify conp1 tf 6 5 6.81038626666667
    # fix conp1 lower electrode/conp 0.0 5 couple upper 0.0 read_inv inv.out # Write call to not have to determine the matrix twice

    # ======== equilibrate for ? ns ========
    reset_timestep 0
    thermo 50
    # dump equilxtc h2o xtc 50 equil.xtc
    run 500 # 1 ps, ~ correlation time of spce water
PPPM/electrode initialization ...
  using 12-bit tables for long-range coulomb (src/kspace.cpp:342)
  G vector (1/distance) = 0.23783319
  grid = 40 45 100
  stencil order = 5
  estimated absolute RMS force accuracy = 0.00036351857
  estimated relative force accuracy = 1.0947254e-06
  using double precision FFTW3
  3d grid and FFT values/proc = 45144 22200
Generated 15 of 15 mixed pair_coeff terms from arithmetic mixing rule
WARNING: Neighbor exclusions used with KSpace solver may give inconsistent Coulombic energies (src/neighbor.cpp:654)
Neighbor list info ...
  update: every = 1 steps, delay = 10 steps, check = yes
  max neighbors/atom: 2000, page size: 100000
  master list distance cutoff = 16
  ghost atom cutoff = 16
  binsize = 8, bins = 6 6 7
  2 neighbor lists, perpetual/occasional/extra = 2 0 0
  (1) pair lj/cut/coul/long, perpetual
      attributes: half, newton on
      pair build: half/bin/newton
      stencil: half/bin/3d
      bin: standard
  (2) fix electrode/conp, perpetual, copy from (1)
      attributes: half, newton on
      pair build: copy
      stencil: none
      bin: none
Per MPI rank memory allocation (min/avg/max) = 27.35 | 27.86 | 29.57 Mbytes
   Step         PotEng         KinEng         E_coul         E_long         E_vdwl      c_watertemp  
         0  -29836.164      4724.1474      92552.589     -127446.41      5057.6553      298.52205    
        50  -29812.167      4688.6776      92750.69      -127443.96      4881.1069      296.28069    
       100  -29762.427      4652.8692      92812.553     -127442.29      4867.307       294.01793    
       150  -29778.921      4703.1115      92690.799     -127443.09      4973.3711      297.19277    
       200  -29804.021      4771.2428      92742.63      -127444.55      4897.9028      301.49804    
       250  -29837.007      4832.7588      92707.265     -127444.4       4900.1251      305.38528    
       300  -29736.864      4735.8719      92895.364     -127444.49      4812.2662      299.26292    
       350  -29792.639      4792.9585      92918.173     -127440.7       4729.8856      302.87027    
       400  -29814.249      4813.3812      92735.67      -127440         4890.0817      304.16079    
       450  -29841.396      4827.4129      92637.695     -127451.93      4972.8438      305.04746    
       500  -29950.028      4845.6231      92583.742     -127447.53      4913.7557      306.19818    
Loop time of 13.2607 on 30 procs for 500 steps with 9401 atoms

Performance: 6.516 ns/day, 3.684 hours/ns, 37.706 timesteps/s, 354.469 katom-step/s
93.9% CPU use with 30 MPI tasks x 1 OpenMP threads

MPI task timing breakdown:
Section |  min time  |  avg time  |  max time  |%varavg| %total
---------------------------------------------------------------
Pair    | 1.1765     | 2.3646     | 3.7105     |  46.1 | 17.83
Bond    | 0.00024979 | 0.00052949 | 0.00094945 |   0.0 |  0.00
Kspace  | 2.7815     | 4.1369     | 5.326      |  34.9 | 31.20
Neigh   | 1.0237     | 1.0286     | 1.0377     |   0.3 |  7.76
Comm    | 0.34107    | 0.38402    | 0.42341    |   3.4 |  2.90
Output  | 0.0010037  | 0.0010281  | 0.0013756  |   0.2 |  0.01
Modify  | 5.2979     | 5.3256     | 5.349      |   0.6 | 40.16
Other   |            | 0.01946    |            |       |  0.15

Nlocal:        313.367 ave         366 max         275 min
Histogram: 7 4 6 1 0 0 0 4 5 3
Nghost:        7661.93 ave        9372 max        6013 min
Histogram: 12 0 0 0 0 0 0 12 0 6
Neighs:         212773 ave      259350 max      125303 min
Histogram: 3 3 0 0 0 0 3 10 8 3

Total # of neighbors = 6383178
Ave neighs/atom = 678.98926
Ave special neighs/atom = 1.6919477
Neighbor list builds = 48
Dangerous builds = 32

    write_dump solvent xyz water_ions.xyz
    write_data equilibrated_structure.data
System init for write_data ...
PPPM/electrode initialization ...
  using 12-bit tables for long-range coulomb (src/kspace.cpp:342)
  G vector (1/distance) = 0.23783319
  grid = 40 45 100
  stencil order = 5
  estimated absolute RMS force accuracy = 0.00036351834
  estimated relative force accuracy = 1.0947247e-06
  using double precision FFTW3
  3d grid and FFT values/proc = 45144 22200
Generated 15 of 15 mixed pair_coeff terms from arithmetic mixing rule
WARNING: Neighbor exclusions used with KSpace solver may give inconsistent Coulombic energies (src/neighbor.cpp:654)

    ## ======== production run ========


    reset_timestep 0
    # Dump to also show the changing charge of the walls
    dump alldump all custom 50 wallcharge_${l_tf}.lammpstrj id type x y z q
    dump alldump all custom 50 wallcharge_5.lammpstrj id type x y z q
    thermo 500 # frequency log file
    #
    variable doutx equal 50 # 0.1ps
    #
    #dump xtc all xtc ${doutx} traj.xtc
    run 20000
PPPM/electrode initialization ...
  using 12-bit tables for long-range coulomb (src/kspace.cpp:342)
  G vector (1/distance) = 0.23783319
  grid = 40 45 100
  stencil order = 5
  estimated absolute RMS force accuracy = 0.00036351834
  estimated relative force accuracy = 1.0947247e-06
  using double precision FFTW3
  3d grid and FFT values/proc = 45144 22200
Generated 15 of 15 mixed pair_coeff terms from arithmetic mixing rule
WARNING: Neighbor exclusions used with KSpace solver may give inconsistent Coulombic energies (src/neighbor.cpp:654)
Per MPI rank memory allocation (min/avg/max) = 27.35 | 27.86 | 29.57 Mbytes
   Step         PotEng         KinEng         E_coul         E_long         E_vdwl      c_watertemp  
         0  -29950.028      4845.6231      92583.741     -127447.52      4913.7557      306.19818    
       500  -29834.977      4826.3517      92700.587     -127445.74      4910.1719      304.98041    
      1000  -29771.814      4746.4692      92625.417     -127446.46      5049.2339      299.93258    
      1500  -29574.485      4835.8898      93010.007     -127439.06      4854.5698      305.58312    
      2000  -29777.347      4727.0759      92744.072     -127441.62      4920.2042      298.7071     
      2500  -29767.337      4683.6479      92767.814     -127443.45      4908.3035      295.96286    
      3000  -29712.084      4755.3457      92814.417     -127450.76      4924.2563      300.49349    
      3500  -29963.342      4839.9827      92535.359     -127441.85      4943.1485      305.84176    
      4000  -29808.915      4772.593       92627.924     -127440.16      5003.32        301.58336    
      4500  -29864.344      4789.2216      92682.383     -127444.59      4897.8657      302.63413    
      5000  -29867.592      4663.956       92671.299     -127450.69      4911.7981      294.71852    
      5500  -29790.258      4676.14        92673.044     -127444.84      4981.5417      295.48843    
      6000  -29825.573      4671.5935      92489.006     -127445.01      5130.4281      295.20113    
      6500  -29863.132      4723.0822      92612.873     -127449.55      4973.5434      298.45474    
      7000  -29727.732      4680.3155      92844.827     -127446.96      4874.4015      295.75228    
      7500  -29777.951      4771.652       92762.537     -127447.52      4907.0296      301.52389    
      8000  -29654.075      4683.4394      92834.721     -127447.65      4958.8495      295.94968    
      8500  -29819.625      4713.367       92713.053     -127449.04      4916.3604      297.84083    
      9000  -29754.534      4787.8563      92739.643     -127447.8       4953.621       302.54785    
      9500  -29851.633      4681.5864      92705.579     -127446.68      4889.4663      295.83259    
     10000  -29737.894      4811.8603      93027.324     -127452.01      4686.7952      304.06469    
     10500  -29915.133      4819.71        92643.91      -127447.91      4888.8707      304.56072    
     11000  -29749.264      4792.7805      92782.022     -127442.38      4911.0979      302.85902    
     11500  -29799.342      4773.8371      92757.442     -127440.8       4884.0127      301.66197    
     12000  -29856.773      4772.419       92722.239     -127448.93      4869.922       301.57236    
     12500  -29771.873      4720.5677      92867.427     -127446.55      4807.2541      298.29584    
     13000  -29652.122      4671.8747      93053.371     -127441.22      4735.7269      295.2189     
     13500  -29605.546      4724.0331      93102.914     -127439.84      4731.3754      298.51483    
     14000  -29662.387      4800.4538      92888.274     -127435.72      4885.0595      303.3439     
     14500  -29640.476      4764.3091      92888.597     -127449.88      4920.8017      301.05989    
     15000  -29777.143      4817.7483      92730.869     -127439.21      4931.1938      304.43675    
     15500  -29765.445      4620.1895      92868.843     -127447.33      4813.0461      291.95288    
     16000  -29824.273      4667.7332      92951.352     -127451.79      4676.1607      294.9572     
     16500  -29871.638      4695.1244      92739.394     -127448.99      4837.955       296.68807    
     17000  -29979.239      4781.0185      92435.461     -127450.77      5036.0692      302.11577    
     17500  -29881.163      4815.8331      92611.253     -127448.61      4956.193       304.31573    
     18000  -29913.864      4773.8724      92604.923     -127444.28      4925.489       301.66421    
     18500  -29795.273      4766.2015      92782.779     -127448.08      4870.026       301.17947    
     19000  -29903.672      4792.3537      92654.104     -127446.96      4889.1869      302.83205    
     19500  -29821.722      4709.4206      92699.447     -127450.87      4929.6977      297.59145    
     20000  -29767.248      4681.5852      92691.449     -127441.36      4982.6594      295.83251    
Loop time of 493.998 on 30 procs for 20000 steps with 9401 atoms

Performance: 6.996 ns/day, 3.431 hours/ns, 40.486 timesteps/s, 380.609 katom-step/s
93.9% CPU use with 30 MPI tasks x 1 OpenMP threads

MPI task timing breakdown:
Section |  min time  |  avg time  |  max time  |%varavg| %total
---------------------------------------------------------------
Pair    | 47.873     | 91.189     | 133.36     | 260.6 | 18.46
Bond    | 0.0094104  | 0.019803   | 0.029823   |   3.2 |  0.00
Kspace  | 113.99     | 156.35     | 199.4      | 199.7 | 31.65
Neigh   | 35.514     | 35.769     | 36.116     |   2.7 |  7.24
Comm    | 12.51      | 15.221     | 16.913     |  30.7 |  3.08
Output  | 0.5308     | 0.69808    | 0.86439    |  12.0 |  0.14
Modify  | 192.76     | 193.98     | 195.5      |   5.5 | 39.27
Other   |            | 0.7697     |            |       |  0.16

Nlocal:        313.367 ave         364 max         269 min
Histogram: 2 7 5 2 2 0 3 0 5 4
Nghost:        7651.83 ave        9332 max        5999 min
Histogram: 12 0 0 0 0 0 0 12 0 6
Neighs:         212922 ave      266439 max      124354 min
Histogram: 6 0 0 0 0 1 6 9 5 3

Total # of neighbors = 6387651
Ave neighs/atom = 679.46506
Ave special neighs/atom = 1.6919477
Neighbor list builds = 1933
Dangerous builds = 1345
    unfix conp1
    fix conp2 lower electrode/conp 0.5 2.925 couple upper -0.5
1440 atoms in group conp_group
    fix_modify conp2 tf 1 ${l_tf} ${d}
    fix_modify conp2 tf 1 5 ${d}
    fix_modify conp2 tf 1 5 6.81038626666667
    fix_modify conp2 tf 6 ${l_tf} ${d}
    fix_modify conp2 tf 6 5 ${d}
    fix_modify conp2 tf 6 5 6.81038626666667
    run         200000 # 400 ps
PPPM/electrode initialization ...
  using 12-bit tables for long-range coulomb (src/kspace.cpp:342)
  G vector (1/distance) = 0.23783319
  grid = 40 45 100
  stencil order = 5
  estimated absolute RMS force accuracy = 0.00036351834
  estimated relative force accuracy = 1.0947247e-06
  using double precision FFTW3
  3d grid and FFT values/proc = 45144 22200
Generated 15 of 15 mixed pair_coeff terms from arithmetic mixing rule
WARNING: Neighbor exclusions used with KSpace solver may give inconsistent Coulombic energies (src/neighbor.cpp:654)
Neighbor list info ...
  update: every = 1 steps, delay = 10 steps, check = yes
  max neighbors/atom: 2000, page size: 100000
  master list distance cutoff = 16
  ghost atom cutoff = 16
  binsize = 8, bins = 6 6 7
  2 neighbor lists, perpetual/occasional/extra = 2 0 0
  (1) pair lj/cut/coul/long, perpetual
      attributes: half, newton on
      pair build: half/bin/newton
      stencil: half/bin/3d
      bin: standard
  (2) fix electrode/conp, perpetual, copy from (1)
      attributes: half, newton on
      pair build: copy
      stencil: none
      bin: none
Per MPI rank memory allocation (min/avg/max) = 28.61 | 29.13 | 30.84 Mbytes
   Step         PotEng         KinEng         E_coul         E_long         E_vdwl      c_watertemp  
     20000  -29765.474      4681.5852      92692.147     -127440.28      4982.6594      295.83251    
     20500  -29683.542      4807.569       92907.951     -127450.57      4859.0767      303.79351    
     21000  -29882.565      4811.705       92485.111     -127453.2       5085.5208      304.05487    
     21500  -29724.017      4710.2162      92731.88      -127448.63      4992.7299      297.64173    
     22000  -30016.905      4721.7888      92509.689     -127455.59      4928.992       298.373      
     22500  -29753.309      4794.891       92889.051     -127453.56      4811.2053      302.99238    
     23000  -29792.165      4681.361       92909.641     -127450.2       4748.3933      295.81835    
     23500  -29853.491      4778.8536      92772.374     -127441.1       4815.2378      301.97897    
     24000  -29830.723      4784.202       92778.782     -127449.21      4839.7046      302.31694    
     24500  -29748.625      4798.1254      92839.753     -127449.67      4861.2923      303.19677    
     25000  -29885.678      4724.7332      92624.3       -127449.56      4939.5826      298.55906    
     25500  -29784.864      4724.8584      92815.351     -127446.36      4846.1478      298.56698    
     26000  -29786.945      4718.4227      92847.858     -127451.22      4816.4171      298.1603     
     26500  -29639.465      4746.0433      92974.98      -127440.24      4825.7989      299.90566    
     27000  -29951.718      4808.5037      92645.729     -127444.98      4847.5346      303.85258    
     27500  -29918.25       4671.9598      92596.397     -127452.8       4938.1563      295.22428    
     28000  -29869.499      4733.1616      92673.104     -127447.02      4904.4181      299.09166    
     28500  -29920.427      4854.9442      92521.432     -127452.79      5010.9304      306.78718    
     29000  -29819.77       4672.2038      92687.698     -127446.36      4938.8882      295.2397     
     29500  -29764.667      4742.9781      92820.2       -127446.11      4861.2409      299.71197    
     30000  -29637.968      4758.848       92883.146     -127444.98      4923.8702      300.71481    
     30500  -29737.293      4812.4671      92760.453     -127449.76      4952.0119      304.10303    
     31000  -29868.087      4747.5879      92714.898     -127440.7       4857.7167      300.00327    
     31500  -29894.25       4868.5692      92578.208     -127441.53      4969.0763      307.64816    
     32000  -29703.091      4755.6492      92865.681     -127447.43      4878.6594      300.51267    
     32500  -29867.538      4667.1788      92891.887     -127445.75      4686.3209      294.92217    
     33000  -29725.167      4709.1279      92930.75      -127446.99      4791.0769      297.57296    
     33500  -29719.338      4748.9387      92909.366     -127446.66      4817.9611      300.08862    
     34000  -29903.71       4740.6265      92820.748     -127451.41      4726.953       299.56337    
     34500  -29575.01       4764.0382      93094.345     -127440.21      4770.8526      301.04277    
     35000  -29711.109      4671.6871      92894.48      -127452.32      4846.7301      295.20705    
     35500  -29757.354      4811.4466      92831.076     -127443.95      4855.5149      304.03854    
     36000  -29889.909      4713.4588      92769.574     -127447.68      4788.1939      297.84663    
     36500  -29917.346      4637.0825      92703.885     -127451.13      4829.8944      293.02036    
     37000  -29810.414      4845.1319      92574.646     -127446.31      5061.2472      306.16714    
     37500  -29732.261      4778.582       92598.7       -127444.93      5113.966       301.96181    
     38000  -29764.623      4730.0278      92694.497     -127453.73      4994.6146      298.89363    
     38500  -29843.824      4746.1673      92710.224     -127441.92      4887.8753      299.9135     
     39000  -29679.121      4687.656       92922.421     -127446.12      4844.5748      296.21613    
     39500  -29738.538      4752.2893      92929.262     -127445.65      4777.8468      300.30035    
     40000  -29777.26       4845.9317      92895.994     -127448.42      4775.1629      306.21768    
     40500  -29867.196      4708.4906      92784.814     -127448.59      4796.5789      297.53269    
     41000  -29822.209      4720.0351      92725.887     -127443.72      4895.6196      298.26219    
     41500  -29917.496      4841.9544      92564.545     -127437.32      4955.2817      305.96635    
     42000  -29737.672      4749.768       92770.328     -127438.48      4930.478       300.14103    
     42500  -29826.408      4794.3426      92845.064     -127443.84      4772.3668      302.95773    
     43000  -29791.403      4626.0509      92594.545     -127450.75      5064.8053      292.32326    
     43500  -29699.575      4709.7463      92857.447     -127449.98      4892.9619      297.61203    
     44000  -29845.837      4707.9584      92752.462     -127445.76      4847.4585      297.49905    
     44500  -29802.834      4770.1757      92714.126     -127446.12      4929.156       301.43061    
     45000  -29852.726      4805.7156      92644.75      -127441.08      4943.6012      303.6764     
     45500  -29898.966      4732.8213      92832.84      -127442.66      4710.854       299.07016    
     46000  -29833.976      4766.0022      92768.127     -127443.36      4841.2589      301.16688    
     46500  -29741.198      4803.7958      92869.614     -127445.61      4834.7938      303.55508    
     47000  -29845.555      4697.0614      92692.439     -127440.96      4902.9709      296.81046    
     47500  -29824.077      4737.549       92760.937     -127451.91      4866.897       299.36891    
     48000  -29727.881      4765.1969      92807.928     -127448.77      4912.9616      301.11599    
     48500  -29830.587      4706.6589      92815.473     -127448.17      4802.1119      297.41694    
     49000  -29853.778      4741.4045      92775.813     -127441.32      4811.7292      299.61254    
     49500  -29851.291      4735.9706      92624.907     -127440.8       4964.6055      299.26916    
     50000  -29886.292      4780.9966      92466.679     -127441.23      5088.2593      302.11439    
     50500  -29915.516      4802.1982      92534.524     -127441.67      4991.6338      303.45413    
     51000  -29746.269      4795.2612      92652.49      -127448.17      5049.4067      303.01578    
     51500  -29645.564      4794.1633      92988.708     -127445.45      4811.1771      302.9464     
     52000  -29716.688      4782.44        92912.895     -127443.99      4814.4031      302.2056     
     52500  -29821.041      4748.0803      92898.129     -127455.45      4736.2838      300.03438    
     53000  -29809.066      4742.3624      92799.491     -127445.84      4837.2875      299.67307    
     53500  -29833.971      4805.6674      92699.464     -127442.71      4909.2726      303.67335    
     54000  -29963.327      4738.2929      92500.277     -127449.54      4985.9357      299.41591    
     54500  -29894.643      4774.9836      92717.289     -127441.51      4829.5814      301.73442    
     55000  -29827.225      4704.4637      92731.766     -127439.16      4880.1731      297.27822    
     55500  -29761.816      4793.3644      92702.119     -127440.27      4976.3332      302.89591    
     56000  -29790.052      4869.4745      92732.775     -127444.25      4921.4185      307.70537    
     56500  -29732.805      4770.5799      92920.418     -127441.08      4787.8535      301.45615    
     57000  -29752.179      4707.7175      92912.433     -127440.48      4775.8704      297.48383    
     57500  -29817.949      4678.544       92857.471     -127442.4       4766.9831      295.64034    
     58000  -29905.979      4817.0179      92589.528     -127446.53      4951.0199      304.3906     
     58500  -29686.326      4760.021       92821.553     -127439.93      4932.0557      300.78892    
     59000  -29776.821      4716.9527      92863.45      -127445.11      4804.8373      298.06741    
     59500  -29796.426      4762.6273      92681.713     -127448.2       4970.0657      300.95362    
     60000  -29888.883      4761.5259      92599.698     -127449.56      4960.9754      300.88402    
     60500  -29947.495      4730.6972      92389.743     -127438.35      5101.1104      298.93593    
     61000  -29906.805      4781.1467      92437.613     -127447.74      5103.3241      302.12387    
     61500  -29855.012      4795.7437      92575.136     -127451.72      5021.5756      303.04626    
     62000  -29771.382      4711.495       92903.85      -127440.58      4765.3513      297.72253    
     62500  -29769.563      4645.4111      92767.572     -127443.34      4906.2047      293.54665    
     63000  -29845.858      4714.284       92740.577     -127444.99      4858.5595      297.89877    
     63500  -29765.031      4851.6885      92671.14      -127448.47      5012.3001      306.58145    
     64000  -30014.734      4754.9703      92601.689     -127450.25      4833.8227      300.46977    
     64500  -29839.774      4765.3399      92732.344     -127445.36      4873.24        301.12503    
     65000  -29795.957      4703.1029      92806.151     -127451.06      4848.9493      297.19224    
     65500  -29634.36       4743.0493      92939.463     -127443.47      4869.6457      299.71647    
     66000  -29783.972      4795.1781      92665.33      -127449.12      4999.8161      303.01052    
     66500  -29790.711      4811.8365      92696.531     -127443.54      4956.2949      304.06318    
     67000  -29721.788      4733.0249      92861.985     -127440.7       4856.928       299.08302    
     67500  -29568.633      4721.0114      92959.193     -127449.55      4921.7209      298.32388    
     68000  -29628.05       4713.4498      92771.24      -127445.51      5046.2184      297.84606    
     68500  -29662.045      4783.8137      93031.21      -127446.31      4753.0507      302.2924     
     69000  -29777.034      4709.9701      92664.177     -127448.75      5007.541       297.62617    
     69500  -29680.046      4614.6235      92826.883     -127448.03      4941.1027      291.60116    
     70000  -30015.919      4694.607       92477.407     -127446.79      4953.4655      296.65537    
     70500  -29783.772      4729.6215      92707.172     -127440.4       4949.4508      298.86796    
     71000  -29757.855      4794.8674      92818.535     -127445.97      4869.5753      302.99089    
     71500  -29799.315      4757.588       92797.957     -127442.71      4845.4417      300.63518    
     72000  -29968.389      4779.9376      92652.934     -127449.57      4828.2442      302.04747    
     72500  -29725.283      4629.6196      92925.321     -127456.67      4806.0607      292.54877    
     73000  -29746.377      4801.234       92796.603     -127446.03      4903.052       303.3932     
     73500  -29906.338      4796.8096      92667.235     -127455.49      4881.9164      303.11362    
     74000  -29785.361      4859.4144      92742.691     -127437.74      4909.6887      307.06966    
     74500  -29855.461      4693.3875      92677.949     -127445.02      4911.6085      296.57831    
     75000  -29854.028      4805.8783      92674.768     -127444.32      4915.5213      303.68668    
     75500  -29692.714      4763.1519      92981.88      -127442.98      4768.3823      300.98677    
     76000  -29727.148      4769.9244      92886.513     -127445.28      4831.6145      301.41473    
     76500  -29790.1        4795.1234      92815.364     -127442.91      4837.451       303.00707    
     77000  -29814.474      4686.9448      92672.964     -127446.52      4959.0796      296.17119    
     77500  -29865.445      4710.2801      92712.065     -127447.95      4870.436       297.64576    
     78000  -29794.453      4793.246       92868.821     -127452.71      4789.4362      302.88844    
     78500  -29740.284      4723.9051      92877.643     -127438.89      4820.9579      298.50674    
     79000  -29915.665      4755.1438      92504.961     -127445.59      5024.9623      300.48073    
     79500  -29861.35       4776.0455      92809.589     -127443.56      4772.6175      301.80152    
     80000  -29701.176      4748.4092      92957.937     -127447.45      4788.334       300.05517    
     80500  -29759.61       4769.3474      92868.093     -127453.12      4825.4163      301.37827    
     81000  -29790.198      4736.4023      92764.156     -127450.05      4895.6986      299.29644    
     81500  -29865.995      4760.8732      92574.378     -127443.49      5003.1144      300.84278    
     82000  -29650.666      4800.4607      92835.435     -127447.06      4960.9629      303.34434    
     82500  -29882.368      4654.9603      92709.56      -127451.22      4859.2883      294.15007    
     83000  -29808.644      4628.9417      92952.306     -127448.36      4687.4074      292.50594    
     83500  -29813.615      4729.8403      92724.908     -127450.97      4912.4509      298.88179    
     84000  -29691.343      4735.3851      92920.985     -127438.4       4826.0705      299.23217    
     84500  -29870.75       4712.4902      92714.5       -127439.75      4854.4962      297.78542    
     85000  -29904.155      4813.7789      92667.761     -127446.82      4874.903       304.18592    
     85500  -29835.199      4786.5453      92617.673     -127443.4       4990.5303      302.46502    
     86000  -29839.601      4751.9778      92730.163     -127449.46      4879.6959      300.28067    
     86500  -29955.882      4719.851       92438.09      -127445.37      5051.3942      298.25056    
     87000  -29834.383      4757.3109      92672.211     -127449.26      4942.663       300.61767    
     87500  -29745.502      4644.8686      92937.41      -127446.05      4763.134       293.51237    
     88000  -29795.601      4706.7675      92696.071     -127443.48      4951.8078      297.4238     
     88500  -29823.763      4713.4955      92768.233     -127446.5       4854.4998      297.84895    
     89000  -29812.76       4711.7647      92790.035     -127448.86      4846.0611      297.73958    
     89500  -29925.847      4708.3952      92518.868     -127443.66      4998.9432      297.52666    
     90000  -29793.407      4755.9172      92798.784     -127441.65      4849.4604      300.5296     
     90500  -29961.654      4739.461       92464.081     -127441.45      5015.7129      299.48972    
     91000  -29789.542      4700.7409      92641.085     -127447.63      5017.0039      297.04298    
     91500  -29850.904      4787.2212      92710.882     -127445.29      4883.5015      302.50772    
     92000  -29762.833      4718.0964      92891.595     -127446.47      4792.04        298.13968    
     92500  -29838.206      4744.1313      92766.162     -127445.81      4841.446       299.78484    
     93000  -29851.714      4645.2041      92628.379     -127440.92      4960.8312      293.53357    
     93500  -29797.865      4649.5433      92805.541     -127450.65      4847.2483      293.80776    
     94000  -29705.896      4724.8178      92759.492     -127445.33      4979.9459      298.56441    
     94500  -29799.62       4724.7803      92759.295     -127452.58      4893.6632      298.56204    
     95000  -29943.395      4724.9286      92536.426     -127440.53      4960.713       298.57141    
     95500  -29667.649      4731.1123      93036.396     -127446.91      4742.8652      298.96216    
     96000  -29810.307      4742.8669      92807.264     -127454.58      4837.0059      299.70495    
     96500  -29872.91       4841.0468      92851.07      -127445.26      4721.2806      305.909      
     97000  -29680.16       4764.5538      92855.988     -127443.24      4907.0921      301.07536    
     97500  -29894.047      4817.7739      92739.902     -127453.16      4819.2154      304.43837    
     98000  -29765.631      4662.3716      92783.616     -127445.22      4895.9726      294.61839    
     98500  -29764.971      4723.5138      92833.306     -127443.87      4845.5976      298.48201    
     99000  -29735.874      4708.1855      92823.567     -127445.51      4886.0693      297.5134     
     99500  -29780.837      4751.1056      92797.078     -127449.15      4871.2316      300.22555    
    100000  -29741.955      4761.2912      92970.447     -127446.17      4733.7641      300.86919    
    100500  -29823.892      4717.1991      92692.039     -127442.87      4926.9437      298.08298    
    101000  -29752.907      4704.5283      92712.884     -127440.26      4974.4636      297.2823     
    101500  -29875.195      4731.1672      92637.428     -127447.51      4934.8879      298.96563    
    102000  -29825.174      4849.1612      92737.663     -127447.99      4885.1559      306.42176    
    102500  -29749.721      4844.437       92843.738     -127442.97      4849.5142      306.12323    
    103000  -29698.679      4688.1581      92852.112     -127448.76      4897.9647      296.24786    
    103500  -29735.418      4749.9102      92809.389     -127446.95      4902.1426      300.15002    
    104000  -29767.507      4801.2874      92784.368     -127447.81      4895.9362      303.39657    
    104500  -29655.44       4778.0781      93034.269     -127441.85      4752.138       301.92996    
    105000  -29754.933      4751.7838      92767.03      -127443.22      4921.2589      300.26841    
    105500  -29828.319      4719.4042      92664.393     -127444.09      4951.3823      298.22232    
    106000  -29823.704      4771.5732      92583.286     -127437.11      5030.1232      301.51892    
    106500  -29639.783      4723.6452      92917.042     -127443.56      4886.7371      298.49031    
    107000  -29787.503      4688.9706      92618.377     -127441.96      5036.0799      296.2992     
    107500  -29988.442      4802.3337      92562.254     -127446.55      4895.8519      303.46269    
    108000  -29711.469      4778.0257      92887.144     -127439.78      4841.1663      301.92665    
    108500  -29808.457      4725.2896      92730.012     -127440.42      4901.9525      298.59423    
    109000  -29819.825      4757.6814      92756.642     -127451.12      4874.6539      300.64109    
    109500  -29759.586      4674.732       92908.249     -127449.68      4781.8398      295.39945    
    110000  -29769.25       4650.7906      92819.098     -127451.59      4863.2438      293.88659    
    110500  -29705.672      4739.4011      92857.738     -127448.04      4884.6299      299.48594    
    111000  -29680.859      4727.4084      92913.181     -127448.31      4854.2738      298.72812    
    111500  -29742.564      4849.2741      92770.297     -127437.37      4924.5124      306.42889    
    112000  -29817.249      4692.2048      92491.596     -127450.24      5141.3975      296.50357    
    112500  -29710.295      4742.4555      92881.483     -127451.46      4859.6813      299.67895    
    113000  -29712.972      4805.2916      92938.663     -127444.75      4793.1201      303.6496     
    113500  -29692.372      4786.3579      93022.423     -127449.02      4734.2294      302.45317    
    114000  -29815.387      4768.4451      92485.457     -127449.66      5148.8101      301.32125    
    114500  -29689.949      4727.1819      92906.743     -127449.07      4852.3768      298.7138     
    115000  -29586.924      4701.9575      93023.696     -127439.4       4828.7834      297.11985    
    115500  -29721.593      4673.2691      92959.171     -127448.06      4767.2964      295.30702    
    116000  -29917.055      4740.4937      92642.226     -127448.7       4889.4177      299.55498    
    116500  -29782.248      4745.5761      92757.431     -127437.47      4897.7928      299.87614    
    117000  -29841.65       4776.8909      92445.815     -127444.42      5156.9565      301.85494    
    117500  -29884.924      4690.9902      92608.497     -127443.86      4950.4387      296.42682    
    118000  -29839.848      4751.7324      92661.153     -127449.31      4948.3095      300.26516    
    118500  -29812.54       4763.7049      92750.914     -127444.99      4881.5406      301.02171    
    119000  -29740.136      4616.5766      92703.633     -127442.63      4998.8585      291.72458    
    119500  -29769.722      4698.699       92877.853     -127443.04      4795.4605      296.91395    
    120000  -29803.911      4787.6932      92654.905     -127441.07      4982.2553      302.53755    
    120500  -29737.943      4802.2873      92838.388     -127450.92      4874.5904      303.45976    
    121000  -29799.393      4679.8763      92752.861     -127447.12      4894.8626      295.72453    
    121500  -29719.581      4820.9305      92769.721     -127449.76      4960.4598      304.63784    
    122000  -29746.973      4675.717       93023.361     -127449.41      4679.0799      295.4617     
    122500  -29900.985      4778.8015      92791.199     -127446.25      4754.0654      301.97567    
    123000  -29697.399      4778.5732      92801.722     -127441.96      4942.8355      301.96125    
    123500  -29790.401      4849.9093      92729.027     -127440.57      4921.1457      306.46903    
    124000  -29821.291      4707.4856      92731.338     -127447.31      4894.6815      297.46918    
    124500  -29795.601      4726.5297      92816.922     -127449.03      4836.5083      298.67259    
    125000  -29971.206      4732.4216      92658.157     -127445.34      4815.9808      299.0449     
    125500  -29893.523      4733.8777      92743.07      -127450.56      4813.9676      299.13691    
    126000  -29801.312      4676.8751      92928.665     -127439.31      4709.3277      295.53488    
    126500  -29955.059      4731.9023      92493.897     -127445.25      4996.2925      299.01208    
    127000  -29648.123      4794.5711      92943.759     -127444.13      4852.2494      302.97217    
    127500  -29826.292      4829.5751      92849.739     -127448.31      4772.2755      305.1841     
    128000  -29813.295      4804.3392      92651.459     -127445.01      4980.2559      303.58942    
    128500  -29788.785      4772.1562      92794.429     -127442.17      4858.9592      301.55576    
    129000  -29816.596      4772.4667      92619.898     -127450.5       5014.0098      301.57538    
    129500  -29900.491      4795.1394      92624.296     -127451.74      4926.9532      303.00808    
    130000  -29751.965      4691.9391      92815.122     -127450.76      4883.6693      296.48679    
    130500  -29758.513      4764.2849      92800.807     -127441.28      4881.9586      301.05836    
    131000  -29636.409      4727.1953      93044.917     -127441.36      4760.0334      298.71464    
    131500  -29665.575      4788.4138      92959.629     -127450.8       4825.5945      302.58308    
    132000  -29877.161      4693.7563      92630.478     -127449.26      4941.6236      296.60161    
    132500  -29816.107      4709.8243      92771.07      -127442.66      4855.481       297.61696    
    133000  -29838.17       4733.2435      92620.049     -127431.82      4973.6011      299.09683    
    133500  -29777.712      4765.8961      92808.982     -127456.56      4869.8694      301.16017    
    134000  -29558.739      4763.221       93127.145     -127447.54      4761.6587      300.99114    
    134500  -29907.576      4756.4938      92540.469     -127447.96      4999.9136      300.56604    
    135000  -29954.623      4766.6539      92462.956     -127444.29      5026.7144      301.20806    
    135500  -29903.166      4807.2201      92503.031     -127444.84      5038.6385      303.77147    
    136000  -29948.291      4698.0811      92522.454     -127451.13      4980.384       296.8749     
    136500  -29967.938      4697.3608      92430.248     -127441.19      5043.0014      296.82939    
    137000  -29881.685      4739.2995      92647.539     -127448.93      4919.7091      299.47952    
    137500  -29755.56       4734.0083      92783.706     -127445.28      4906.0149      299.14517    
    138000  -29854.631      4636.3548      92646.175     -127448.79      4947.9852      292.97437    
    138500  -29743.047      4736.3146      92742.762     -127439.8       4953.9932      299.2909     
    139000  -29831.089      4719.2041      92662.955     -127441.21      4947.1691      298.20968    
    139500  -29760.357      4654.111       92800.586     -127444.15      4883.212       294.0964     
    140000  -29742.485      4752.9184      92817.924     -127445.97      4885.563       300.34011    
    140500  -29916.278      4804.9564      92573.885     -127441.44      4951.2785      303.62842    
    141000  -29826.126      4747.6721      92774.715     -127451.95      4851.113       300.00859    
    141500  -29890.113      4870.0117      92539.868     -127450.5       5020.5143      307.73931    
    142000  -29837.012      4774.226       92544.516     -127445.4       5063.8742      301.68655    
    142500  -29861.068      4699.6383      92643.279     -127454.44      4950.0962      296.9733     
    143000  -29735.992      4770.6976      92878.261     -127445.23      4830.979       301.46359    
    143500  -29721.015      4819.6792      92736.39      -127452.05      4994.6439      304.55877    
    144000  -29772.798      4749.9528      92729.932     -127448.46      4945.73        300.15271    
    144500  -29690.118      4706.1222      92893.584     -127438.03      4854.3307      297.38302    
    145000  -29797.543      4737.1997      92831.996     -127442.65      4813.1102      299.34683    
    145500  -29624.94       4762.6098      92950.609     -127446.73      4871.1851      300.95251    
    146000  -29822.973      4710.5056      92886.935     -127452.15      4742.2399      297.66001    
    146500  -29903.565      4830.0455      92657.649     -127453.58      4892.3637      305.21382    
    147000  -29833          4820.7951      92728.435     -127452.97      4891.5306      304.62928    
    147500  -29790.324      4757.4854      92932.976     -127444.12      4720.818       300.6287     
    148000  -29867.007      4673.6158      92661.279     -127444.99      4916.7086      295.32892    
    148500  -29826.677      4760.7191      92630.75      -127444.73      4987.3002      300.83304    
    149000  -29786.071      4687.6224      92698.073     -127449.04      4964.8939      296.21401    
    149500  -29911.816      4791.2347      92743.14      -127451.88      4796.9205      302.76134    
    150000  -29723.199      4725.4714      92961.961     -127444.11      4758.9526      298.60571    
    150500  -29875.894      4681.0931      92618.502     -127444.59      4950.1958      295.80142    
    151000  -29793.703      4749.9252      92770.013     -127444.17      4880.4496      300.15096    
    151500  -29663.926      4738.0148      92944.868     -127447.81      4839.0118      299.39834    
    152000  -29691.751      4732.1291      92908.015     -127442.73      4842.9614      299.02641    
    152500  -29836.159      4723.2748      92793.236     -127447.34      4817.9398      298.46691    
    153000  -29817.696      4777.4265      92734.757     -127446.53      4894.0726      301.88879    
    153500  -29759.566      4770.7635      92838.101     -127448.43      4850.7655      301.46775    
    154000  -29785.35       4738.4242      92821.126     -127450.21      4843.7334      299.42421    
    154500  -29737.758      4745.1588      92960.308     -127450.08      4752.0116      299.84977    
    155000  -29792.611      4650.0101      92751.16      -127442.01      4898.239       293.83726    
    155500  -29989.506      4654.8584      92361.648     -127453.61      5102.4562      294.14363    
    156000  -29725.791      4771.6633      92835.809     -127449.98      4888.3847      301.52461    
    156500  -29886.605      4778.0299      92655.196     -127445.89      4904.091       301.92692    
    157000  -29949.29       4727.041       92447.885     -127451.73      5054.5522      298.7049     
    157500  -29899.242      4720.4766      92521.14      -127449.84      5029.4573      298.29009    
    158000  -29883.505      4792.4229      92701.907     -127447.43      4862.0163      302.83642    
    158500  -29589.381      4826.1248      93053.025     -127440.82      4798.4099      304.96607    
    159000  -29660.193      4736.0315      92988.771     -127438.14      4789.1737      299.27301    
    159500  -29768.364      4658.4991      92948.565     -127450.47      4733.5412      294.37369    
    160000  -29769.276      4721.8521      92830.394     -127444.38      4844.7107      298.37701    
    160500  -29712.314      4744.3721      93023.767     -127450.43      4714.3521      299.80006    
    161000  -29753.524      4751.555       92676.989     -127441.5       5010.9908      300.25395    
    161500  -29851.576      4630.8164      92763.669     -127450.78      4835.5358      292.6244     
    162000  -29873.046      4685.2104      92679.232     -127445.36      4893.08        296.06159    
    162500  -29931.084      4800.7749      92660.134     -127450.96      4859.7409      303.36419    
    163000  -29884.541      4761.1053      92595.503     -127445.4       4965.3521      300.85745    
    163500  -29786.585      4831.2853      92638.498     -127453.57      5028.4909      305.29217    
    164000  -29863.321      4717.7831      92649.259     -127447.77      4935.1939      298.11989    
    164500  -29918.467      4673.4405      92692.141     -127452.92      4842.3088      295.31784    
    165000  -29978.972      4627.302       92442.449     -127448.4       5026.9751      292.40232    
    165500  -29754.489      4766.4584      92664.002     -127448.24      5029.7463      301.19571    
    166000  -29948.024      4875.816       92601.573     -127447.23      4897.6361      308.10609    
    166500  -29743.746      4692.7225      92729.493     -127443.31      4970.0702      296.53629    
    167000  -29860.506      4786.7469      92499.258     -127451.12      5091.3513      302.47775    
    167500  -29810.853      4820.8544      92642.405     -127439.07      4985.8096      304.63303    
    168000  -29930.258      4714.4244      92545.476     -127449.49      4973.7585      297.90764    
    168500  -29867.63       4777.6803      92595.227     -127445.82      4982.967       301.90483    
    169000  -29767.924      4670.2181      92862.297     -127450.52      4820.2954      295.11422    
    169500  -29786.2        4871.3882      92668.894     -127446.56      4991.4705      307.82629    
    170000  -29635.827      4789.6584      92982.971     -127452.28      4833.4843      302.66173    
    170500  -29796.38       4833.8195      92832.07      -127437.92      4809.4693      305.4523     
    171000  -29839.99       4768.3457      92878.13      -127448.32      4730.1978      301.31497    
    171500  -29741.929      4766.0367      92831.194     -127439.55      4866.4294      301.16906    
    172000  -29874.929      4755.6508      92735.621     -127441.24      4830.6932      300.51277    
    172500  -29676.687      4753.8215      92818.222     -127430.43      4935.5178      300.39718    
    173000  -29686.081      4737.7174      92851.535     -127443.86      4906.2449      299.37955    
    173500  -29799.349      4716.2463      92738.445     -127451.59      4913.7988      298.02277    
    174000  -29820.409      4701.1329      92567.469     -127443.96      5056.0824      297.06775    
    174500  -29754.273      4747.4812      92658.308     -127452.3       5039.7185      299.99653    
    175000  -29758.244      4797.9571      92858.829     -127448.43      4831.3621      303.18613    
    175500  -29671.673      4764.7334      93046.471     -127451.53      4733.3879      301.0867     
    176000  -29810.473      4719.2322      92840.496     -127449.53      4798.5603      298.21146    
    176500  -29830.678      4773.4689      92689.692     -127447.97      4927.6042      301.63871    
    177000  -29645.932      4804.2374      92790.346     -127443.35      5007.0678      303.58299    
    177500  -29800.594      4677.7655      92736.694     -127444.67      4907.3845      295.59114    
    178000  -29781.154      4698.6943      92801.121     -127442.12      4859.8448      296.91365    
    178500  -29762.486      4722.2712      92772.174     -127453.35      4918.6917      298.40349    
    179000  -29737.753      4808.1872      92976.751     -127449.98      4735.4731      303.83258    
    179500  -29875.983      4704.8144      92751.623     -127447.34      4819.7313      297.30038    
    180000  -29814.008      4773.1395      92830.725     -127447.92      4803.1904      301.61789    
    180500  -29700.767      4790.9335      92764.534     -127444.31      4979.013       302.74231    
    181000  -29852.195      4858.2289      92824.655     -127457.96      4781.1109      306.99475    
    181500  -29837.782      4764.9586      92644.382     -127445.82      4963.6512      301.10093    
    182000  -29672.767      4766.1564      92948.265     -127441.78      4820.7504      301.17663    
    182500  -29951.502      4665.028       92478.986     -127444.82      5014.3359      294.78625    
    183000  -29770.415      4739.2096      92971.314     -127450.65      4708.919       299.47384    
    183500  -29814.455      4732.0811      92786.241     -127439.51      4838.8168      299.02338    
    184000  -29859.734      4803.7757      92662.159     -127449.46      4927.5687      303.55382    
    184500  -29857.606      4779.1604      92743.433     -127445.49      4844.4487      301.99836    
    185000  -29963.985      4784.2646      92586.532     -127449.01      4898.4927      302.3209     
    185500  -29830.412      4747.323       92664.73      -127447.16      4952.0163      299.98653    
    186000  -29833.805      4724.4164      92706.059     -127449.59      4909.7218      298.53905    
    186500  -29710.316      4812.0532      92877.461     -127444.91      4857.1312      304.07688    
    187000  -29822.818      4712.5083      92729.97      -127452.78      4899.9948      297.78657    
    187500  -29863.42       4726.4674      92652.799     -127449.93      4933.7081      298.66865    
    188000  -29765.647      4710.6098      92761.106     -127446.31      4919.5619      297.6666     
    188500  -29829.496      4764.1685      92621.645     -127454.28      5003.1414      301.05101    
    189000  -29790.175      4825.4078      92767.409     -127439.13      4881.5499      304.92076    
    189500  -29867.154      4748.5491      92707.269     -127450.44      4876.0194      300.06401    
    190000  -29925.701      4765.7072      92625.623     -127450.63      4899.3019      301.14824    
    190500  -29782.8        4742.056       92692.726     -127448.22      4972.6892      299.65371    
    191000  -29710.982      4707.7225      92894.39      -127444.38      4839.0053      297.48415    
    191500  -29808.028      4706.7872      92735.6       -127442.67      4899.045       297.42504    
    192000  -29878.028      4802.5119      92588.816     -127443.14      4976.2934      303.47395    
    192500  -29890.59       4773.425       92493.163     -127436.82      5053.0689      301.63594    
    193000  -29808.092      4774.868       92764.461     -127450.66      4878.1049      301.72711    
    193500  -29778.792      4734.3666      92856.502     -127443.25      4807.956       299.16781    
    194000  -29661.217      4789.2044      92836.103     -127448.34      4951.0178      302.63305    
    194500  -29756.698      4808.0455      92761.969     -127445.21      4926.548       303.82362    
    195000  -29815.115      4807.963       92798.878     -127446.46      4832.4628      303.81841    
    195500  -29854.594      4751.8885      92632.006     -127452.08      4965.4834      300.27503    
    196000  -29886.22       4609.3921      92535.891     -127446.14      5024.028       291.27058    
    196500  -29844.129      4800.9295      92642.845     -127448.11      4961.1354      303.37396    
    197000  -29788.496      4760.3909      92694.468     -127447.99      4965.0287      300.8123     
    197500  -29716.099      4779.7044      92870.729     -127447.12      4860.295       302.03273    
    198000  -29848.94       4741.2045      92794.13      -127444.45      4801.3779      299.5999     
    198500  -29707.621      4791.9152      93078.083     -127450.61      4664.908       302.80434    
    199000  -29663.586      4790.3531      92902.223     -127454.28      4888.4684      302.70563    
    199500  -29747.98       4750.4688      92872.852     -127446.08      4825.2442      300.18532    
    200000  -29718.791      4763.3782      92942.329     -127447.85      4786.7301      301.00107    
    200500  -29808.605      4726.3532      92758.765     -127445.95      4878.5849      298.66143    
    201000  -29755.238      4703.2055      92835.126     -127452.25      4861.8871      297.19872    
    201500  -29721.826      4730.1786      92937.406     -127437.37      4778.1411      298.90316    
    202000  -29773.87       4691.5463      92776.795     -127441.23      4890.5636      296.46196    
    202500  -29761.659      4756.6195      92809.249     -127449.04      4878.1305      300.57398    
    203000  -29656.937      4649.2451      92959.674     -127440.82      4824.2062      293.78892    
    203500  -29666.407      4713.9083      92849.11      -127448.16      4932.6398      297.87503    
    204000  -29793.938      4744.1548      92881.045     -127446.4       4771.416       299.78633    
    204500  -29836.742      4733.6216      92784.495     -127448.11      4826.8771      299.12073    
    205000  -29784.193      4788.3412      92727.727     -127449.12      4937.2047      302.5785     
    205500  -29927.777      4812.3332      92566.929     -127438.13      4943.4206      304.09457    
    206000  -29718.631      4721.359       92725.67      -127436.1       4991.7958      298.34585    
    206500  -29941.089      4700.9226      92445.314     -127445.35      5058.9432      297.05446    
    207000  -29819.664      4738.4574      92870.458     -127451.91      4761.7863      299.42631    
    207500  -29663.166      4750.6114      92830         -127446.5       4953.3326      300.19433    
    208000  -29725.964      4839.3105      92879.638     -127444.92      4839.3186      305.79928    
    208500  -29919.831      4738.5576      92768.819     -127445.79      4757.1397      299.43264    
    209000  -29855.373      4719.7969      92934.085     -127452.2       4662.7449      298.24714    
    209500  -29706.162      4761.6329      92799.708     -127442.21      4936.3398      300.89078    
    210000  -29773.919      4752.5914      92772.079     -127451.49      4905.4877      300.31945    
    210500  -29774.53       4787.3257      92814.095     -127445.36      4856.7363      302.51433    
    211000  -29768.668      4814.8324      92820.147     -127448.21      4859.3926      304.2525     
    211500  -29775.453      4782.2049      92619.271     -127447.64      5052.9163      302.19074    
    212000  -29750.119      4734.5976      92746.743     -127440.81      4943.9449      299.18241    
    212500  -29854.263      4717.8334      92695.531     -127446.77      4896.9725      298.12306    
    213000  -29764.229      4760.8478      92778.926     -127445.98      4902.8197      300.84117    
    213500  -29829.621      4788.3046      92720.57      -127449.12      4898.9314      302.57619    
    214000  -29990.178      4690.2469      92539.238     -127450.13      4920.7169      296.37985    
    214500  -29730.306      4670.2726      92868.2       -127451.54      4853.0371      295.11766    
    215000  -29786.778      4700.3335      92798.891     -127443.44      4857.7753      297.01723    
    215500  -29773.87       4809.9622      92739.695     -127443.76      4930.1967      303.94474    
    216000  -29663.732      4729.3827      92893.621     -127445.99      4888.6372      298.85287    
    216500  -29814.249      4706.3919      92673.299     -127447.07      4959.5234      297.40007    
    217000  -29755.216      4778.408       92799.004     -127446.48      4892.2595      301.95081    
    217500  -29812.155      4814.0157      92836.914     -127453.23      4804.1641      304.20088    
    218000  -29757.26       4733.7819      92799.236     -127447.12      4890.6271      299.13086    
    218500  -29909.959      4791.82        92607.886     -127445.34      4927.4941      302.79832    
    219000  -29739.066      4771.8935      92812.912     -127450.25      4898.2688      301.53916    
    219500  -29862.531      4773.3004      92696.794     -127441.23      4881.9047      301.62806    
    220000  -29747.359      4631.2605      92892.459     -127451.06      4811.2461      292.65246    
Loop time of 5160.23 on 30 procs for 200000 steps with 9401 atoms

Performance: 6.697 ns/day, 3.583 hours/ns, 38.758 timesteps/s, 364.363 katom-step/s
94.1% CPU use with 30 MPI tasks x 1 OpenMP threads

MPI task timing breakdown:
Section |  min time  |  avg time  |  max time  |%varavg| %total
---------------------------------------------------------------
Pair    | 471.59     | 906.39     | 1429.9     | 873.9 | 17.56
Bond    | 0.093839   | 0.20119    | 0.37426    |  13.1 |  0.00
Kspace  | 1054.3     | 1574.5     | 2008.1     | 664.3 | 30.51
Neigh   | 411.13     | 413.92     | 417.2      |   7.4 |  8.02
Comm    | 133.49     | 153.97     | 170.05     |  71.8 |  2.98
Output  | 5.9085     | 7.7123     | 9.4809     |  38.9 |  0.15
Modify  | 2083.6     | 2095.7     | 2106.9     |  11.4 | 40.61
Other   |            | 7.809      |            |       |  0.15

Nlocal:        313.367 ave         372 max         271 min
Histogram: 6 4 7 1 0 0 3 1 5 3
Nghost:        7639.87 ave        9342 max        5938 min
Histogram: 12 0 0 0 0 0 0 12 0 6
Neighs:         212671 ave      271762 max      128867 min
Histogram: 5 1 0 0 0 6 7 5 3 3

Total # of neighbors = 6380121
Ave neighs/atom = 678.66408
Ave special neighs/atom = 1.6919477
Neighbor list builds = 19308
Dangerous builds = 13245
    #write_data structure.data
    undump alldump
    next l
    unfix conp2
    jump SELF loop_start
label loop_end
Total wall time: 17:37:09
